%%MatrixMarket matrix array real general
236 1
-2.4710483200334865
0.00688764218496995
-4.782881739236744
-2.747746074184151
-3.517806128350837
-0.9137917987326274
-6.447611058488618
-1.2655128623185936
11.033455462973683
-49.52722543315615
-5.05524557118685
-0.6411280180506772
-3.5342642517125933
3.057335084502801
-3.1787909719454577
-0.30632474185369707
-2.362848376562585
1.2890533642105968
155.82783781756
46.75332398893138
48.36569848271792
-0.35560699164093973
-2.728263583825874
1.3242117749893427
-0.020791105455313458
-1.076809773580534
-1.3336938066205055
1.6930161686243996
-2.166062585937061
269.4105341023226
-145.43492175531892
257.8026866194124
1.896544858799729
-0.8371921168111837
1.6490143626357687
0.09178633661701735
2.392524924285179
-0.8264144102091786
3.52954326832776
-0.7217204616546105
215.84737448116059
-51.8441867930548
-41.43993144520931
0.8475985872553022
-0.005037520164389346
2.4753284682953214
-0.9597353297289353
77.82203520643833
72.53147262013586
-36.1369645388326
-5.21743159856522
-2.077647402932146
-4.745259082724938
1.3691569555857745
-3.5158970448143716
-2.3913157755602232
-4.348278073300414
1.2347122359195486
8.062773292210894
50.033212937152896
100.60578328930126
-3.207952606017188
0.5628631662855921
-1.4643111923783505
-1.9493757219266576
-4.1658824058868795
-0.3013871951455475
-0.5265008992808443
-0.35954477143850183
-78.5585505887784
-173.72455708451258
-28.84108264620077
-0.02072780643447864
-0.8173690522332479
1.2468412467208123
-2.7603373650069623
2.437908628206118
0.9132536337670963
3.5104776398686277
-0.868734664421623
66.72337376585388
-20.983865474912307
67.50988576069783
0.604625453164215
-0.8653220887209006
-0.013758938830138314
-1.101234566310787
1.3574926883120413
-0.2876182163564688
-3.3877780834222544
0.6058950139747792
140.0408985193542
111.2568566312384
-150.1940624030047
0.8753807853557183
-1.3796376792547296
2.1195033274182156
-3.2968745260620618
129.04030681629214
78.81643189803532
91.84446135164431
-3.964940882452361
-2.773997565645515
-3.1214229387487773
0.552059902410809
-2.5059234219285202
-1.5182946312330647
-2.5841421543129175
-1.1787409128570656
-2.2925573951454243
29.817885198264065
116.71337364927007
-2.3799074229914883
-1.040058048437151
-0.43360008837711234
2.308375307364945
-2.6163791924735067
-2.3632137491248555
-0.19895381837404158
1.7986852316214978
-175.98770137552015
-19.90900419128519
-66.344393483113
1.7912191158602804
2.7239766418650455
3.4104767636828526
3.9026318809291745
2.979285308391937
5.495034665965743
5.933728427183985
5.370141538758071
-136.69945247565184
-97.04796628725794
217.56824373109683
4.347273940028092
3.2098911022018335
0.34568584060441065
2.2085373898098113
3.596507285983068
3.645608322085154
1.6730483467762765
2.2744111423792237
145.676025170043
-260.74302339579816
55.897270518557384
1.2296132305897252
-0.6670631096893375
1.3291058556509194
-1.0910305289643334
159.62985954734938
-22.15827564007675
40.505941907633215
2.558493695748946
-0.34399041065521424
-0.8184511755708348
-3.293250906680853
-1.631475462698037
0.1671440232563418
-0.13468197168583074
-0.4630693925544996
12.718475172608992
-203.13940263065442
-47.21300773779032
-1.2794376977551645
-3.498002643559319
0.7130410266601268
-1.0311645192090808
-0.2737662918926596
-4.254329516737501
-1.8838482568112755
-4.80563623913272
-78.99658357783638
15.576373219004306
-81.31990954799448
3.050545074332442
2.8082244285202806
5.428359467100512
2.818125921959761
-0.24644038575799654
-2.5329328158847275
3.1637437557322063
0.3859599211457686
-273.6775071725787
-93.98612843343409
-141.52568896221646
4.466029969379637
1.4753899902020398
1.3624568515126008
-0.04637714290824143
4.6100165851252175
-0.23692603032125567
1.5815003371125338
-2.969655037065005
-172.143652491031
-71.95357003827081
194.06225139956615
1.5938869945053427
0.7554751476048461
-2.4132619947386127
-0.18097128776953025
131.47714840018398
58.247288744868776
4.172779454055216
0.980078810704942
0.32026439043047156
0.4880312187123364
2.633053445554345
-10.16264373170563
-62.28352975317162
22.137603599882606
-0.8627420421574652
-1.5127935770719512
0.8080468223265843
-1.9154954090186747
-140.9277473099047
43.779478657855435
23.64900630507565
0.28229372424658983
-3.5205015953591143
-2.5256032580175547
-5.161072162520881
-306.8345662770377
-111.40573034402698
-187.8175923426005
-1.2495004514007042
-2.3107371851238683
0.955147332569011
-1.6511406306410061
-104.10265510638601
302.63853251646174
268.08329317002875
0.28579331119229445
-1.2137679598839228
378.73005891098614
-67.0507312782424
193.0894419224381
