%%MatrixMarket matrix array real general
236 1
7.965492390108657
-0.7434473357926612
17.017547855561986
-5.4081790477025615
12.544550501553207
0.7715352355729798
26.976321960872045
0.8676968519443121
-14.765645575318478
30.391753185867245
36.81896306603811
-9.405688992208438
20.724279143418002
-10.333045479556876
43.60866612178686
2.79469058458472
35.2395341286411
0.665194978402003
206.36199220448825
-98.90972988605242
12.329238387912767
53.82584723721608
-26.32936128184306
3.3391254940051054
-20.410603704678156
45.80790116091224
4.680648703318298
24.188464573574166
-1.8783312698051788
171.79744194602858
-134.75092565019378
-8.201459170495692
53.58495657730508
-47.38076057644465
-33.07349316710027
-19.636704987405743
40.13144089279783
-3.685983704099655
1.4636456100477584
-14.280721890839926
122.0053298016848
-109.06623970769681
91.60465379333503
51.69734481291172
-57.526545946784935
20.640119460181875
-16.5328341448543
143.73034245478763
-132.61901008641652
233.0862029485066
13.447987887490289
3.2715705142601155
21.946453273827522
7.822231855031995
9.896283228953047
4.675837379961984
14.49518701277333
9.457123158953836
20.667308878422922
-15.019386224783121
-25.57890834537493
21.01416604016105
7.696861650683373
13.662151394291051
6.6328951450038245
10.857766550218313
8.99694098061331
2.8375474995394523
5.715888209330654
-180.27763013715682
44.69494851143765
-30.79630826083839
9.043942902813273
4.563457704719213
2.945255334538589
3.3479949887761182
-1.7459579585549725
3.6416326617551666
-6.649204323523334
0.5329478322028851
-250.24089226918727
51.59438913306549
10.06854622578776
11.476689757170865
3.077701548993115
5.641432487193244
2.4290567874930984
-2.8161319190835443
-0.16030743522401553
-1.8025893838632647
4.84259500108065
-186.64231774801829
29.086226313389385
41.558752599135865
17.255226759631732
-10.317036120840259
11.959644934282828
-1.7813049307675368
-49.129028634694464
-36.29497575985781
58.38419320109777
6.995961114423905
5.033566277551176
9.070234569824605
9.157176823631085
4.1962314920469375
3.8099920240694565
4.695786280841931
7.184297970350508
26.528103031586316
-2.610626348091244
-36.45255197740494
5.877142091972673
8.390333866025339
1.2647341930568128
5.1769605714373155
3.4512890350311776
7.205169907735676
1.1836282619522813
6.731575617658098
-80.70359978267018
8.877584277701445
-5.58753823381012
-1.9533466151401653
2.355392571248831
-2.339679950279078
-0.37221649940970325
-1.2764345365750762
3.1876529307367436
-1.0072904173875017
-0.7945700572196271
-23.627553165093122
0.6993856561968897
-3.496682527341399
-2.0544658081972105
-1.871188952616137
-2.4657904782426487
-0.5813082801224209
-1.1718945093153756
-0.5481844896975235
-1.137614524464501
2.811681354909381
2.8951033411243157
26.878483522135042
10.36218701461866
9.326912892670952
-2.27928656286346
6.864321978140947
1.1871867140477212
-41.973382256422965
2.702426772697146
8.01864657366815
1.3606371346930088
2.429580701343842
1.8518357473284
4.113974781895053
0.9700159497691537
1.1875658978285584
0.5649047239379973
1.7137389735216366
12.258802842862918
31.678282860578513
-9.392977863560095
1.6895465962947802
4.530370392554162
1.9338894138892375
6.5616910296783475
0.05191509116065157
0.8525523745183193
1.096006046083385
3.065354918272664
-36.44060115555087
11.529383164038514
5.419781558179513
0.9326558822403357
5.59844152949535
0.7132462327982229
2.978946979653706
2.2433087177236555
5.858932822507728
3.258423043379711
6.976428508267387
0.027401165769777466
20.605176758838645
25.708935310598616
0.5725593375910243
0.042788840844825954
1.4945067498833549
-2.393954341802579
4.3046053537421205
7.535149112566105
8.075394695107695
7.769727617241855
42.99063348608272
15.85375498673424
-2.3199472607865865
6.285195481752673
-1.0986043163007153
7.1001751857900395
3.2408363629711077
5.771377870626484
5.983107526052175
0.5443887703126785
0.18804643024951373
0.39212343785023024
0.4340974634211593
0.38278904126822144
13.354491766019981
2.320704314789834
-6.0653912199075055
0.04352075786023683
-0.516284963320546
0.2202349753417239
-1.0151384864969641
-2.169922474291901
-2.04061136951759
-2.2298331204116457
1.0281731788461206
0.23460967995449608
2.462457405551214
1.7534575732496687
23.138021909419294
10.486440475122349
14.015474989942476
3.409823639405808
2.3499464971032786
3.3879912643010703
3.1204408875370366
7.785338301025202
-35.26397280950087
1.6759160862074962
2.4801027380348044
1.2687960835560248
-58.63528252208066
29.37752971360388
-8.915996320192058
