%%MatrixMarket matrix array real general
236 1
-2.725398999446741
-2.726152258196679
-2.0663724418762484
-4.373800743613146
-4.370122586345325
-2.0686272722904517
-3.3995060306792806
-3.4078681347889197
42.65221239935113
42.62466550390064
-0.7686747601272558
-2.4760031336172386
-0.39220773115352364
-1.4963937004082402
-2.05398769604688
-2.9855852855834253
-1.16976371457722
-2.2520784322231435
140.58479257993127
-12.511618785793468
13.317795528580097
-0.27897453745447426
-0.9248804626802636
-0.2337330241637273
-0.48535091920185325
-0.8834981983047372
-1.5450780316909498
-0.7605426044098106
-0.9257771917106811
152.0026255386001
-3.956979154653417
1.9586566779414947
-0.21604256801084665
0.19390083609443076
-1.1025188779762976
0.7653393408254558
-1.2851807498292647
-0.3303771689464679
-0.6235911099458517
0.4919809727794294
150.67003257219986
-13.575468167541999
-7.6685688160887935
-1.8871858819403586
2.4091974625276342
-1.4845843286710394
0.11110214193557665
90.33857695786031
62.99073225209349
-98.94735519907914
-2.4676081850759664
-0.7700490105904381
-2.9634400331315027
-2.063238919253503
-1.4878324963925642
-0.3866251902908903
-2.2196677894826453
-1.163545590002563
140.6403049533185
13.33159731100404
-12.508905329297086
-2.3605167811132906
-2.3966559098915416
-1.755909509890127
-2.2246977102297207
-2.1356643063003853
-1.7828033882507854
-1.837361368620951
-1.9699695948979863
141.4365319440484
4.986491899583032
4.9345213219605
-1.3887755996510471
-1.8665510880672085
-1.3415777279249932
-1.4795728035943227
-1.6544918311821655
-1.9768013740051933
-1.5076314835515152
-1.8947578685473523
148.92115298756653
-0.21497465494109924
2.318065576746837
-1.4133439628648388
-1.2594838353769457
-2.3266974798083297
-1.0820237883284733
-1.6265993806193966
-1.9089979109203103
-0.9883831500183394
-2.5524450682341984
151.37073153692697
-4.426361958409998
1.9448006927258177
-2.6924934635061586
-2.7361531299168917
0.6944771898119783
-3.265617993764164
183.93281772767793
112.64733100593932
94.57548884890103
-0.9470095448162945
-0.2560020356989705
-1.5137534059956854
-0.8087234816264706
-0.5708688196019686
-0.17922697334316817
-1.008075716619873
-0.5928494703522184
152.19523509496003
2.322519276625871
-3.5370962397281898
-1.702907867529884
-1.3485426805600966
-1.6722474982742734
-1.7503779211220047
-1.2225817406475932
-1.080849156785242
-1.309911266737535
-1.5260405088589455
149.1811326259109
2.536539737227283
-0.020350061764728936
-1.5889630046616625
-1.9680015775552264
-1.554640374389756
-2.0932888035458594
-1.372015177562219
-1.9010880559439551
-1.381368300493269
-2.133319789606011
151.47885805471918
1.1766702070532131
1.5654431240654891
-1.304379946226881
-2.1370573010204
-0.7914452468648094
-2.3234649963370364
-1.579988978574889
-2.208371264856121
-0.7622735300470157
-1.2325798696000838
154.60480817931293
-1.6885863010706956
1.085298245130327
-0.16524595675389295
-2.9798001686201903
1.0509697625154963
-2.7034411849460707
184.98694078533254
21.651623629436987
70.97955367615441
-0.30375726827346744
-0.1317033068053224
-0.5788795071172579
-0.44626126894272844
-0.11386892007341648
-0.0841866318589628
-0.2699057828825992
-0.3070170180213141
153.578566935862
-0.4416525049740745
-1.834297579506365
-0.77041996802832
-0.8610352652589007
-0.8872328301223235
-1.3084689352849714
-0.3783992514705469
-0.6155412572023778
-0.459553088401181
-1.0039130697035583
151.6433691047974
0.1500016921295109
-0.029381139601774537
-0.9848528133656114
-1.7537707823960413
-1.1674375833482113
-2.1690525085312062
-0.5493738149944963
-1.425756397307172
-0.6332447076851763
-1.957954244578168
153.62345891622476
-0.0623161191553833
2.072573181691513
-1.3813563823695765
-2.480510705491699
-2.391935084231096
-2.6577117360964158
-1.1289810265343057
-2.5362858708353566
-0.7509955078435491
-3.5959486231368722
159.78524812809087
-2.788114713444231
3.912241176531867
-3.078141591679612
-3.205917920800104
0.8685316686105963
-3.3882973870659208
193.3724692197054
167.42488115804653
74.07164877999497
-0.017324788188627035
-0.03513279813541485
-0.06272100160730623
-0.1363510655777574
151.61286238052554
-1.056003363856715
-0.8057266287347811
-0.10180397653939074
-0.3197211987537315
-0.12961933470060794
-0.5540708802112836
150.0742106990622
-1.6258333360887194
-0.240388804171166
-0.15343862809555683
-0.8393389128563773
-0.18436266325735326
-1.1621644453904425
151.70683261548143
-2.4750206059291777
2.1074002613485088
-0.19267307669879988
-1.7443218153025564
-0.7645771230891939
-2.2501047898437023
159.8415751139287
-10.411469594715092
9.445464535127238
-1.3928958041344142
-2.7425547719478374
210.1212446127572
65.41780268914205
71.42436093565055
