%%MatrixMarket matrix array real general
9661 1
-3.9885073725617e-07
-4.0171828179030e-07
-5.7618555788716e-07
-8.8342288080689e-07
-8.6527502499156e-07
-5.8472342923457e-07
-1.1446499903582e-06
-1.1858161677973e-06
 1.0164395367052e-19
 1.1519648082658e-19
-1.9581640279263e-06
-2.9955988276147e-06
-1.3149292939566e-06
-1.9533935762539e-06
-3.6836648965380e-06
-3.6507550583136e-06
-2.3799123351244e-06
-2.2542020913091e-06
-1.0164395367052e-20
-1.3467823861343e-19
-1.0333801956503e-19
-3.2503813604604e-06
-6.3696779996694e-07
-2.0348975160248e-06
 1.6798528988116e-06
-5.7273733986285e-06
 4.6282050021260e-07
-3.5476388049183e-06
 3.2017938354639e-06
 4.9127910940749e-19
 1.2366681029913e-19
 1.3552527156069e-20
-6.1020459301009e-06
 7.9170098553419e-06
-4.3160813305038e-06
 5.7172042791098e-06
-1.0656091474492e-05
 1.2664790083217e-05
-7.5989152762967e-06
 8.7333211840554e-06
-1.2790197503540e-19
 3.3881317890172e-21
-8.8938459461701e-20
-1.3746711773982e-05
 1.5417648325800e-06
-9.8260338289025e-06
-6.8615427775143e-06
-2.4913596274212e-05
 2.8168090369651e-06
-1.7912396194919e-05
-9.5644738660541e-06
-3.6930636500287e-19
 6.7762635780344e-20
 3.4728350837426e-20
-2.9862777381748e-05
-6.3816769981961e-05
-2.0576673157913e-05
-6.2797586752428e-05
-5.5865760141049e-05
-8.9392090262375e-05
-3.8423976244484e-05
-8.7756359311214e-05
-1.4026865606531e-18
-9.1818371482366e-19
 6.6915602833090e-19
-5.8681143646544e-05
-2.3922934482483e-04
-3.8734711875987e-05
-1.8515717990614e-04
-1.1135213650126e-04
-3.3135229143944e-04
-7.3037916930085e-05
-2.5576866635460e-04
 2.5885326868091e-18
 4.9466724119651e-19
 2.2531076396964e-18
-1.0363351152088e-04
-5.4927574013164e-04
-6.5495602477927e-05
-3.7379834133561e-04
-1.9684467832826e-04
-7.5436285589003e-04
-1.2345596673212e-04
-5.1299045764824e-04
 4.0725344103987e-18
 4.8789097761848e-19
 3.3610267347051e-18
-1.6476886664588e-04
-9.5964082908201e-04
-9.9698219027111e-05
-5.9366777596237e-04
-3.1110033604065e-04
-1.3146249989393e-03
-1.8694585522627e-04
-8.1483056853659e-04
 1.4026865606531e-18
 1.6466320494624e-18
-4.2690460541617e-19
-2.3686363092296e-04
-1.3721212798158e-03
-1.3734461828019e-04
-7.8223138784228e-04
-4.4365581446604e-04
-1.8884233650840e-03
-2.5596362800429e-04
-1.0822519880271e-03
 2.9815559743351e-18
-3.7269449679189e-18
-3.2932640989247e-18
-3.0997904097463e-04
-1.6568917632402e-03
-1.7259378416812e-04
-8.7394881003622e-04
-5.7656179187582e-04
-2.3107064393053e-03
-3.2018570096270e-04
-1.2307700188177e-03
-8.1586213479534e-18
-1.5788694136820e-18
-4.8789097761848e-19
-3.7245923119911e-04
-1.7056732474225e-03
-1.9970361608257e-04
-8.2787981434240e-04
-6.8973726618005e-04
-2.4378055687433e-03
-3.6980104281792e-04
-1.2032719582606e-03
 6.4510029262887e-18
 9.0124305587858e-19
 3.0730355326386e-18
-4.1466795507117e-04
-1.4763020944195e-03
-2.1479384893608e-04
-6.4369630499606e-04
-7.6698850899692e-04
-2.2019621749214e-03
-3.9826091117501e-04
-9.9064957996431e-04
 3.9200684798929e-18
-8.0637536578609e-19
 1.4255564502290e-18
-4.3148498909496e-04
-1.0073267081823e-03
-2.1658924868273e-04
-3.6001321154622e-04
-7.9972406211048e-04
-1.6337874045820e-03
-4.0331391286763e-04
-6.3303939142667e-04
 8.1145756346962e-18
-5.6920614055489e-19
-2.7325282878424e-18
-4.2267209161650e-04
-4.0041620657005e-04
-2.0607706246434e-04
-3.8858883463888e-05
-7.8724662579788e-04
-8.4806847348862e-04
-3.8634696084117e-04
-2.0451791918319e-04
 3.2627709128236e-18
-3.3610267347051e-18
 6.7830398416124e-18
-3.9160992282738e-04
 2.1644747184402e-04
-1.8561966201336e-04
 2.5497130921792e-04
-7.3460091013544e-04
-4.4169251141035e-06
-3.5093755301396e-04
 2.1034169892609e-04
-4.7975946132484e-18
-5.0618688927917e-18
-1.6540859393982e-17
-3.4359198199718e-04
 7.2782909889124e-04
-1.5814553056970e-04
 4.7163195432631e-04
-6.4992699445199e-04
 7.3966307638962e-04
-3.0163736255862e-04
 5.3933981092946e-04
-9.7510432887915e-18
-2.7511630126820e-18
 1.2326023448445e-17
-2.8458456019109e-04
 1.0589512448860e-03
-1.2669988141489e-04
 5.8641799770243e-04
-5.4276085372606e-04
 1.2680786211430e-03
-2.4344595398684e-04
 7.3880996798437e-04
 2.5749801596531e-19
-3.6930636500288e-18
 2.7247355847276e-17
-2.2058827467619e-04
 1.1873210903595e-03
-9.4227641042277e-05
 6.0126508178016e-04
-4.2338608768944e-04
 1.5285354071035e-03
-1.8168231204019e-04
 7.9998061845465e-04
 4.7433845046241e-19
 5.8411392042657e-18
-5.4277871260056e-18
-1.5715445816333e-04
 1.1380772017384e-03
-6.3300246796683e-05
 5.3882756561308e-04
-3.0225800268369e-04
 1.5347345514498e-03
-1.2158420346875e-04
 7.4514317397867e-04
 7.4538899358378e-18
 7.7520455332714e-18
-7.0642547801009e-18
-9.8621520444375e-05
 9.6734645727237e-04
-3.5655562103720e-05
 4.3204526711094e-04
-1.8850372209656e-04
 1.3504616892810e-03
-6.7252191261247e-05
 6.1583005460264e-04
 1.3183220791066e-17
 5.8546917314217e-18
-1.3498317047444e-17
-4.7088231518444e-05
 7.4047295626123e-04
-1.1674832832043e-05
 3.1305119278002e-04
-8.7454800610232e-05
 1.0624303538060e-03
-2.0203771732952e-05
 4.5757504238875e-04
 3.2424421220895e-18
-2.7816561987831e-18
-3.4262482716436e-18
-1.3656687292141e-06
 5.1254467060913e-04
 1.0139740579174e-05
 2.0494670491189e-04
 2.1554569578086e-06
 7.5170510195699e-04
 2.2116355482105e-05
 3.0672570923951e-04
-3.1848438816762e-19
 1.3213713977167e-19
-5.1855357030908e-18
 4.4565331712931e-05
 3.1606164769649e-04
 3.4263273453794e-05
 1.1782825798079e-04
 9.1905198335240e-05
 4.7238272002348e-04
 6.8810541045572e-05
 1.8294393472829e-04
 3.1950082770432e-18
 2.7985968577282e-18
-6.2815963368379e-18
 1.0551868471609e-04
 1.5353269827534e-04
 7.1118363004663e-05
 4.5618669062719e-05
 2.1157793103299e-04
 2.3849045836166e-04
 1.4175420153606e-04
 8.5330818612839e-05
 1.6195269951502e-18
 1.2603850255144e-18
-2.7782680669941e-19
 2.1426481007936e-04
-3.1522885281188e-05
 1.4163298282277e-04
-6.2308636085362e-05
 4.2369170855849e-04
-1.0039763389313e-05
 2.9492263234054e-04
-3.7055716871848e-05
-3.7404974950750e-18
-4.0657581468206e-19
-2.1412992906589e-18
 4.5313526588231e-04
-5.8477555798797e-04
 4.0843873974516e-04
-5.4029667574795e-04
 8.2817484701714e-04
-6.4866746061942e-04
 7.9952509117653e-04
-5.5555955650899e-04
 3.6049722235143e-18
 1.6534083130404e-18
-1.9786689647860e-18
 5.6052360948389e-04
-3.6883991971708e-03
 1.2994682852866e-02
-3.6106464686121e-03
 9.4344795231827e-04
-3.8103750246240e-03
 7.4955627946274e-03
-3.3286109945774e-03
-7.5894152073985e-18
-6.2883726004159e-18
 4.0115480381964e-18
-4.0052754512103e-02
-1.7066509584803e-02
 2.0901610038139e-01
-5.9250855044368e-02
-1.5909227145304e-02
-1.9642234575588e-02
 5.8547026415534e-02
-2.8275379146529e-02
-2.6020852139652e-18
-3.4694469519536e-18
-1.3010426069826e-18
-5.5598181281987e-01
 1.0652950583714e-01
-1.4224755494790e-01
 2.3015159103583e-02
-6.9388939039072e-18
-3.4694469519536e-17
-2.0816681711722e-17
-3.0534461125439e-06
-1.8760290823813e-06
-3.7640862413264e-06
-3.6127193257379e-06
-2.0330353821818e-06
-1.2197216752163e-06
-2.4175671501439e-06
-2.2809539188973e-06
 2.3716922523120e-19
 9.8255821881499e-20
 8.8091426514447e-20
-1.0077658322730e-05
-8.8863435135904e-06
-6.0761386641434e-06
-3.9248797823535e-06
-5.2285575167232e-06
-5.0609296263285e-06
-2.6055845823991e-06
-1.5440459511795e-06
-4.0318768289305e-19
-1.4399560103323e-20
-1.6601845766184e-19
-1.6210607949731e-05
 8.9768332719974e-06
-1.1302280393238e-05
 1.4666541926146e-05
-7.7225829295535e-06
 8.6469525020852e-06
-6.1000208956274e-06
 1.1456826386196e-05
-1.4907779871676e-19
-2.1302878623446e-19
-1.0672615135404e-19
-4.3935697930306e-05
 4.1652900994164e-05
-3.5325014360876e-05
 2.3454443646653e-05
-3.0958024950234e-05
 2.8388057608613e-05
-2.7008272965229e-05
 1.4325806500945e-05
-1.0164395367052e-20
 5.5523009692519e-19
-2.0837010502456e-19
-1.2747998669910e-04
-2.0980688063121e-05
-9.5979989195111e-05
-5.8821062995665e-05
-1.0537866528426e-04
-2.5137737604763e-05
-8.1165320939824e-05
-4.9350067104742e-05
 1.3281476612947e-18
 5.8360570065821e-19
 1.4467322739103e-18
-3.0421721082097e-04
-3.6932813543529e-04
-2.1259887639630e-04
-3.3819469847768e-04
-2.6309078922382e-04
-2.7888972547902e-04
-1.8474461594770e-04
-2.4769211345666e-04
-5.3172493263889e-19
-1.0282979979667e-18
-1.1498472258977e-18
-6.1095516038995e-04
-1.1900448764548e-03
-4.0262125112123e-04
-8.8940878822846e-04
-5.3323964476060e-04
-8.4763561934220e-04
-3.5067518479520e-04
-6.2369319463046e-04
 3.3847436572282e-18
 6.0579796387628e-18
 1.4230153513872e-18
-1.0709782697055e-03
-2.5492538573386e-03
-6.7225063249021e-04
-1.6983938441180e-03
-9.3108772781192e-04
-1.7631249093252e-03
-5.8145035744299e-04
-1.1630464909884e-03
 1.1333300834263e-18
-2.1684043449710e-19
 1.1536588741604e-18
-1.6761622231695e-03
-4.3091688834363e-03
-1.0076810709332e-03
-2.6399664882533e-03
-1.4451948503735e-03
-2.9318826973255e-03
-8.6355764220783e-04
-1.7857632947690e-03
 1.2265037076242e-17
 3.4694469519536e-18
-2.4004913725187e-18
-2.3778564684004e-03
-6.1344791141925e-03
-1.3742787223403e-03
-3.5074335152219e-03
-2.0328786485205e-03
-4.1469169620845e-03
-1.1683472550168e-03
-2.3666759988068e-03
-1.6008922703106e-17
-7.0896657685185e-18
 9.9611074597106e-18
-3.0948878997092e-03
-7.5908992095435e-03
-1.7252787654043e-03
-4.0794499877768e-03
-2.6287334048773e-03
-5.1474695159302e-03
-1.4594336250111e-03
-2.7738129743369e-03
 2.9476746564450e-19
-2.0228840846327e-17
-3.1035287187398e-18
-3.7353776867269e-03
-8.2866687572809e-03
-2.0152118876850e-03
-4.1914386638702e-03
-3.1621906694061e-03
-5.6972147635146e-03
-1.7026503372688e-03
-2.9066496444656e-03
 1.1600963245595e-17
 1.0934348316106e-17
 2.6752688606080e-17
-4.2210994630272e-03
-7.9932596127070e-03
-2.2111539387359e-03
-3.7825779053850e-03
-3.5752250005316e-03
-5.6482345193656e-03
-1.8737678706655e-03
-2.7203347925968e-03
-2.0447375346719e-17
-5.0567866951082e-19
 5.0686451563697e-18
-4.5033391455827e-03
-6.7035436300917e-03
-2.2973582026649e-03
-2.9064152018741e-03
-3.8325658849505e-03
-4.9720037735388e-03
-1.9612040652794e-03
-2.2316385419279e-03
 7.8943470684101e-18
-1.2883371127738e-18
 1.5914055013014e-17
-4.5656864767865e-03
-4.6207214989962e-03
-2.2732236569087e-03
-1.7099263799896e-03
-3.9219830718800e-03
-3.7567391269775e-03
-1.9639482885836e-03
-1.5104234133982e-03
-6.7157854256005e-17
-8.4110371662352e-19
-1.8067212764934e-18
-4.4167212735888e-03
-2.0967031235655e-03
-2.1478749923185e-03
-3.9406552515686e-04
-3.8475361027643e-03
-2.1816483640569e-03
-1.8870966718065e-03
-6.6316840445602e-04
 2.5343225781849e-18
 3.0205194899088e-17
-3.0958842463908e-17
-4.0796756156873e-03
 4.5368926987610e-04
-1.9353141394260e-03
 8.3139067891125e-04
-3.6212723976412e-03
-4.7980025925343e-04
-1.7379072264792e-03
 1.8663302715360e-04
 7.1591224701933e-18
 7.1337114817757e-18
-1.8935421535870e-17
-3.5853464550208e-03
 2.6408879608795e-03
-1.6523826964985e-03
 1.7898103867360e-03
-3.2581247877452e-03
 1.1033282154997e-03
-1.5243015723430e-03
 9.1928151987641e-04
-2.6579893884840e-17
 1.1702607199265e-17
-9.4596639549360e-18
-2.9701890631788e-03
 4.1763456847179e-03
-1.3190120631430e-03
 2.3706250479485e-03
-2.7757863340909e-03
 2.3527382255080e-03
-1.2559368613170e-03
 1.4401950315896e-03
-3.1801004971716e-17
-1.0520149204898e-17
 2.1707760372233e-17
-2.2765415803674e-03
 4.9245859295319e-03
-9.5809084610954e-04
 2.5479723271573e-03
-2.1976417009029e-03
 3.1249154800777e-03
-9.4606080291193e-04
 1.6994460362154e-03
-1.9190378452993e-17
 3.8523058441126e-18
 2.9639376890323e-17
-1.5493104967153e-03
 4.9206630132637e-03
-5.9205791590244e-04
 2.3798156758339e-03
-1.5538774199335e-03
 3.3787836492114e-03
-6.1111177571060e-04
 1.7038312760231e-03
-1.1905895106606e-17
-1.6127507315722e-17
 2.3781297027112e-17
-8.2477048089258e-04
 4.3451730476125e-03
-2.3508209011869e-04
 1.9851165579823e-03
-8.7517286484484e-04
 3.1839965770173e-03
-2.6526780999347e-04
 1.5142376799426e-03
 8.5042107904332e-19
 3.6591823321386e-18
 3.0205194899088e-18
-1.1059261873703e-04
 3.4602126865195e-03
 1.1878014015698e-04
 1.5045050717752e-03
-1.7557566425808e-04
 2.6976974591388e-03
 9.1087046877547e-05
 1.2258164021377e-03
-4.8619691172397e-18
-1.1350241493208e-18
-3.0154372922253e-18
 6.4344955198870e-04
 2.5276989977674e-03
 5.1278693448653e-04
 1.0595514574199e-03
 5.7529281912849e-04
 2.1165328976869e-03
 4.8829554656748e-04
 9.3927147785688e-04
 1.1939776424497e-17
 1.0435445910173e-18
 8.1653976115315e-19
 1.5883071459966e-03
 1.7387441006296e-03
 1.0527367843409e-03
 7.2257463714465e-04
 1.4863585463409e-03
 1.6259519595709e-03
 1.0068118735935e-03
 7.3545041247591e-04
-8.2670415652020e-19
-1.9176825925837e-18
 4.4723339615027e-18
 3.0291959802713e-03
 1.1203890599885e-03
 1.9413983860754e-03
 4.4776551649051e-04
 2.7669448054155e-03
 1.3395758207109e-03
 1.7909050707967e-03
 6.2904182865342e-04
-4.9195673576530e-18
-2.4462311516704e-18
-5.5565361339882e-19
 5.4306975892957e-03
 6.4625691837517e-05
 3.7233184516782e-03
-3.5126844091593e-04
 4.6707406343565e-03
 1.0541492567033e-03
 3.1184111130638e-03
 3.3716352931012e-04
-2.6359665318554e-18
-9.0395356130979e-18
-5.1567365828842e-18
 8.1746852363152e-03
-4.7963873851176e-03
 1.0927983182155e-02
-4.3151907629806e-03
 6.7337374090606e-03
-6.0714094756753e-04
 5.8852045517774e-03
-1.9384823356914e-03
-1.9244588561618e-18
-9.1886134118147e-18
-5.2990381180229e-18
-8.7889015530416e-03
-1.8770076360672e-02
 1.4211238040816e-02
-3.7921139940380e-03
-2.6887636342110e-04
-3.3025550592684e-03
-9.7200742657719e-03
 3.7700717432285e-03
-5.4210108624275e-18
-1.0842021724855e-17
-7.2641545556529e-18
-2.4718147303302e-01
 5.5326808599394e-02
-9.0365671326197e-02
 1.2675473611608e-02
 3.1225022567583e-17
 1.5178830414797e-17
 1.7347234759768e-18
-2.2065263717425e-06
-2.4308394043840e-06
-1.9490363861677e-06
-4.4389208153361e-06
 4.7775362665981e-08
-1.2371760846341e-06
 7.8504764599446e-07
-2.2410759480604e-06
-3.3881317890172e-20
-1.1011428314306e-19
 1.3552527156069e-19
 1.3584131083981e-06
-1.0032340123081e-05
 3.8099662790572e-06
-2.7065158456074e-06
 7.7979989759891e-06
-5.5863060411457e-06
 7.3466967058754e-06
-1.7667067388275e-06
 3.7608262858091e-19
-5.2516042729767e-20
-5.4210108624275e-20
 6.7495429519580e-07
 1.4312795179982e-05
-6.4820858989081e-06
 1.9205549637802e-05
 1.0290203523750e-05
 3.5017375709934e-06
 6.3443114382833e-07
 6.1115874606665e-06
 4.0657581468206e-20
 2.4225142291473e-19
-3.8963515573698e-20
-7.7646669865344e-05
 2.9918914198859e-05
-7.8279746666566e-05
 3.0368696857241e-06
-4.6664169695121e-05
-2.8290961568006e-06
-5.1876865625217e-05
-1.3908198982213e-05
 2.4580896129320e-18
 1.3408531555036e-18
 7.7588217968494e-19
-3.2974955473424e-04
-1.4955551905303e-04
-2.6077977628788e-04
-1.7744398189701e-04
-2.3138224818453e-04
-1.3055323830430e-04
-1.8489305784120e-04
-1.3105043130651e-04
 2.9053230090823e-19
 1.1282478857427e-18
 3.3881317890172e-21
-8.5133075629418e-04
-7.9410544426924e-04
-6.0006736606078e-04
-6.6008476374968e-04
-6.0924106925775e-04
-5.2200626048154e-04
-4.2879238096394e-04
-4.1502891761402e-04
-4.6857862642108e-18
 4.3520552829926e-18
-3.0662592690606e-18
-1.7174342844784e-03
-2.1217650943437e-03
-1.1258456296356e-03
-1.5174001279194e-03
-1.2257297219969e-03
-1.2810559452076e-03
-7.9916779217693e-04
-8.9588724371059e-04
-5.3413897653856e-18
-5.9969932665605e-19
 7.1421818112483e-18
-2.9506677545161e-03
-4.1612130163733e-03
-1.8325848751820e-03
-2.6998271707788e-03
-2.0848657948492e-03
-2.4056501620337e-03
-1.2854993795336e-03
-1.5383110686548e-03
-3.1543506955750e-18
 1.0221993607465e-17
-1.2688553549869e-17
-4.4937359552653e-03
-6.6869534470047e-03
-2.6695591527185e-03
-4.0305692519440e-03
-3.1352351927195e-03
-3.7628157365099e-03
-1.8479651743865e-03
-2.2438779719913e-03
 3.0079834022895e-17
 3.9370091388380e-18
 7.2929536758595e-18
-6.2089804170764e-03
-9.2629645593526e-03
-3.5494714586877e-03
-5.2546130990532e-03
-4.2759463901048e-03
-5.1191187816668e-03
-2.4261907124346e-03
-2.8798829942078e-03
-2.7606497816912e-17
-1.1523036214448e-17
-4.3520552829926e-18
-7.9103047517489e-03
-1.1371535758970e-02
-4.3723180346262e-03
-6.1161496404081e-03
-5.3822072068845e-03
-6.2109913499848e-03
-2.9559238632400e-03
-3.3198734898625e-03
 4.4191402924151e-17
-7.0303734622107e-19
-1.7702988597615e-18
-9.4126815835394e-03
-1.2563955413174e-02
-5.0522206816366e-03
-6.4286570806171e-03
-6.3387836141757e-03
-6.8207291915261e-03
-3.3857040322034e-03
-3.4771321458740e-03
 2.0926795994865e-17
-4.3927128644608e-18
 1.9132780212580e-17
-1.0575853530088e-02
-1.2570662743218e-02
-5.5348931982557e-03
-6.1129285136836e-03
-7.0662445539309e-03
-6.8265176384179e-03
-3.6864865748853e-03
-3.3194570271506e-03
-6.1657222296535e-17
-4.1023923217894e-18
-1.3867623412447e-17
-1.1324588502487e-02
-1.1341584569791e-02
-5.8001225226467e-03
-5.1990981817784e-03
-7.5299969496356e-03
-6.2140838165203e-03
-3.8514955407249e-03
-2.8653519033357e-03
 3.1374100366299e-18
-1.6017393032579e-18
-3.9842735772948e-17
-1.1641999489559e-02
-9.0254051481167e-03
-5.8518922848476e-03
-3.8046555843323e-03
-7.7317724704855e-03
-5.0582360103208e-03
-3.8885046750625e-03
-2.1698185601453e-03
 3.1885708266441e-17
 1.4445299882475e-17
 4.9060148304969e-18
-1.1545565885690e-02
-5.9167346764504e-03
-5.7037737726522e-03
-2.1043806740550e-03
-7.6911867145846e-03
-3.4923699520499e-03
-3.8094824042041e-03
-1.3089823124322e-03
-1.5057704703340e-17
-4.8721335126067e-18
 9.9373905371875e-18
-1.1061013757665e-02
-2.3979933585694e-03
-5.3673927420466e-03
-3.0258103971903e-04
-7.4272462652161e-03
-1.6814909746150e-03
-3.6223143406824e-03
-3.6911574693210e-04
 1.8377226823629e-17
 1.9903580194582e-17
-2.2219580030612e-17
-1.0206654174780e-02
 1.1118503918337e-03
-4.8486918995181e-03
 1.3903948305476e-03
-6.9470947506751e-03
 1.9466826631365e-04
-3.3273405573837e-03
 5.5912302186289e-04
 3.5649922684039e-17
-7.9621097041904e-20
-1.3730404074992e-17
-8.9936047219958e-03
 4.2043287377860e-03
-4.1524923520639e-03
 2.7813589670309e-03
-6.2450024412293e-03
 1.9511792507403e-03
-2.9192320614992e-03
 1.3843468252075e-03
-2.4110157568883e-17
 3.8438355146400e-17
 3.4110440302404e-17
-7.4388175095144e-03
 6.5337598497717e-03
-3.2915214638733e-03
 3.7221184885503e-03
-5.3105185840039e-03
 3.4093500622807e-03
-2.3928281447470e-03
 2.0215095519607e-03
-3.9048218868423e-18
-8.5550327672684e-18
 2.4830770848760e-17
-5.5796666567893e-03
 7.8795235752733e-03
-2.2921378096932e-03
 4.1419455229317e-03
-4.1407714797686e-03
 4.4207972865753e-03
-1.7496063425684e-03
 2.4075039348181e-03
 2.7963945720654e-17
 8.2196077201557e-18
 2.1714536635811e-17
-3.4730689879092e-03
 8.2078610466523e-03
-1.1872114658642e-03
 4.0754771515879e-03
-2.7479038521747e-03
 4.9082617651468e-03
-9.9942115859442e-04
 2.5250635802028e-03
-6.2646556778928e-18
 1.0560806786367e-17
-1.6347735882008e-17
-1.1632258494077e-03
 7.7062441186420e-03
 1.0087038111006e-05
 3.6699238827325e-03
-1.1507825973318e-03
 4.9118929800218e-03
-1.5180637516643e-04
 2.4250561988817e-03
 1.3068024310239e-17
 1.2661448495557e-17
-2.6552788830528e-17
 1.3851330824521e-03
 6.7632817658963e-03
 1.3483363942646e-03
 3.1605636240801e-03
 6.5398326672650e-04
 4.6142079413196e-03
 8.0393439984761e-04
 2.2306394246296e-03
-6.6068569885835e-18
 1.4379231312589e-17
 8.6702292480950e-18
 4.3636458660110e-03
 5.8871030097816e-03
 2.9760000404902e-03
 2.8139225039592e-03
 2.7266554532623e-03
 4.3138359245045e-03
 1.9178134158500e-03
 2.1088235957682e-03
-5.7259427234391e-18
-2.3730475050276e-17
 6.3425827090402e-18
 8.1312624923307e-03
 5.5299633924939e-03
 5.1423238919859e-03
 2.7932987604409e-03
 5.1736748330011e-03
 4.3115951497521e-03
 3.2762696766886e-03
 2.1826552725637e-03
 8.7718732017655e-18
-5.2651568001327e-18
-3.2802197915370e-17
 1.2968626755062e-02
 5.5658682425199e-03
 8.3302811464603e-03
 2.6832439625579e-03
 7.9833901199464e-03
 4.6115966303076e-03
 5.0578806357935e-03
 2.2886178778982e-03
 1.5659945128837e-17
 8.0230960763927e-18
-5.5158785525200e-18
 1.7010067454802e-02
 4.0103763212676e-03
 1.3749278408148e-02
 3.3031128161554e-05
 9.8306535129957e-03
 4.3905819435840e-03
 7.1236589565120e-03
 1.5937783986102e-03
-2.1060627200531e-17
 1.4934884925988e-17
-1.5585406229479e-18
-5.4687016132788e-03
 2.4758452069742e-03
-2.5695432790891e-02
 7.9986412824571e-03
-3.9710129384201e-03
 4.1891997682055e-03
-1.6074441714087e-02
 3.9978457003089e-03
-2.1684043449710e-18
-9.7578195523695e-18
 1.9515639104739e-18
-1.5625930659677e-01
 1.9899207691462e-02
-6.5576737031988e-02
 7.2574799003959e-03
 4.4235448637409e-17
-2.8189256484623e-18
-5.2041704279304e-18
 3.4031276039959e-06
-2.6122082561891e-06
 6.4828922579987e-06
-4.5820332443824e-06
 3.2650703681858e-06
-1.4433786938856e-06
 5.5609406080792e-06
-2.5078633171388e-06
-7.1150767569361e-20
-1.2620790914089e-19
-6.0986372202310e-20
 3.1764311465159e-05
-1.7436165884961e-05
 2.5608762359880e-05
-1.0475522157771e-05
 2.3157808001662e-05
-1.2876465120409e-05
 1.7458222984309e-05
-9.7481672640676e-06
-1.0232158002832e-18
-1.3552527156069e-20
-3.4558944247976e-19
 2.9997487593018e-05
-2.8987906572978e-05
-2.3549245171672e-06
-1.8477241724768e-05
 1.6587200733942e-05
-3.5928792301826e-05
-5.4534641735771e-06
-2.7206074591307e-05
-2.6393546636444e-18
-1.0630263488042e-19
 1.0503208545953e-19
-1.5699502472022e-04
-1.1381005230608e-04
-1.6737516223128e-04
-1.0852968233421e-04
-1.1959745722778e-04
-1.1775354610988e-04
-1.2183807270111e-04
-9.8923842488247e-05
-6.2206099646356e-18
-4.4598402255307e-18
-2.8417955380382e-18
-7.1277748735124e-04
-4.9671783368085e-04
-5.6020550265671e-04
-4.2268516653021e-04
-5.0325189041289e-04
-3.7610584856883e-04
-3.8883115808275e-04
-2.9715700105193e-04
-4.3461260523618e-18
-2.5732860937586e-18
-7.1955448869253e-18
-1.7973233001836e-03
-1.4590925903149e-03
-1.2501963204206e-03
-1.0927772777047e-03
-1.2296462102614e-03
-9.4946036707802e-04
-8.4481490487276e-04
-6.8387635718692e-04
 5.9631119486703e-19
-8.4601650771760e-18
 9.4190063734678e-19
-3.4974237898718e-03
-3.1819369891289e-03
-2.2578778086028e-03
-2.1584335339568e-03
-2.3371715434453e-03
-1.9152792855029e-03
-1.4920313886374e-03
-1.2687394245643e-03
 8.7650969381875e-18
 1.5178830414797e-18
 2.7443867491039e-19
-5.7804032432352e-03
-5.6126583240103e-03
-3.5333079907086e-03
-3.5206424176599e-03
-3.7831988876670e-03
-3.2236040546212e-03
-2.2879238698978e-03
-1.9878842359930e-03
-1.6046192152785e-17
-2.2615779691690e-17
 1.0140678444529e-17
-8.4770980338462e-03
-8.4301089440766e-03
-4.9576760245268e-03
-4.9572808317722e-03
-5.4433238695963e-03
-4.6863056101064e-03
-3.1517736601233e-03
-2.7172823317989e-03
-2.1053850936953e-17
 1.6808521805314e-17
-2.8168927693889e-17
-1.1312403728006e-02
-1.1129745891065e-02
-6.3722933723955e-03
-6.1924338601385e-03
-7.1383964533647e-03
-6.0317122568550e-03
-3.9852308392718e-03
-3.3138508951471e-03
-3.0899761915837e-18
-1.1243515341854e-17
 1.1844908734404e-17
-1.3975951738658e-02
-1.3183258722073e-02
-7.6228108111058e-03
-6.9826743226713e-03
-8.6814911627302e-03
-6.9942576350932e-03
-4.6991825421823e-03
-3.6614075206720e-03
 2.9076947013346e-17
 1.8888834723771e-18
 1.6088543800148e-17
-1.6203401748823e-02
-1.4191787809576e-02
-8.5984301641799e-03
-7.1797309873993e-03
-9.9266389870483e-03
-7.3916817225101e-03
-5.2356018851443e-03
-3.6990272776496e-03
 9.0920516558277e-18
-2.7584474960283e-17
 7.0324063412841e-17
-1.7833376136876e-02
-1.3969776871717e-02
-9.2498044265874e-03
-6.7496033701389e-03
-1.0798347853205e-02
-7.1584417585955e-03
-5.5753235860721e-03
-3.4242188045575e-03
 2.3411990662109e-18
 2.3632219228395e-19
 3.2682766269807e-17
-1.8819571177331e-02
-1.2545621147697e-02
-9.5819811988294e-03
-5.7544817519180e-03
-1.1291521577089e-02
-6.3345210291304e-03
-5.7309319157941e-03
-2.8784472178822e-03
 2.1558682573517e-17
-1.8797355165467e-17
-3.0916702574782e-19
-1.9201696070852e-02
-1.0106890684141e-02
-9.6310133847155e-03
-4.3176572351129e-03
-1.1448014705024e-02
-5.0297608333381e-03
-5.7312046835616e-03
-2.1273965257178e-03
-6.3548646867754e-18
-3.7388034291805e-18
 4.0152114556932e-17
-1.9055972052058e-02
-6.9301006652944e-03
-9.4372680134749e-03
-2.5898574572700e-03
-1.1325005567691e-02
-3.3859270894776e-03
-5.6051077508652e-03
-1.2444982981661e-03
 4.0055552800945e-17
 6.3036191934665e-18
 6.8715124329532e-17
-1.8448082518851e-02
-3.3233955824286e-03
-9.0253024209595e-03
-7.2632002200379e-04
-1.0968165646538e-02
-1.5489362893224e-03
-5.3704505987353e-03
-3.0053057568313e-04
-6.7076539093068e-18
-1.2341270041495e-17
 1.7457984317622e-17
-1.7403300829447e-02
 4.0736830992794e-04
-8.3946504153181e-03
 1.1243190270918e-03
-1.0395641724962e-02
 3.4635138778616e-04
-5.0286864445290e-03
 6.4125552371142e-04
-4.5285769492004e-17
 7.9976850879751e-18
 6.0144633210976e-17
-1.5898904514932e-02
 3.9719048884956e-03
-7.5219160639379e-03
 2.8230412021344e-03
-9.5934574169831e-03
 2.1809789058849e-03
-4.5652955922053e-03
 1.5257713370014e-03
 4.1225199421985e-17
-1.2824078821430e-18
-1.0405482119664e-17
-1.3877607468888e-02
 7.0991674764822e-03
-6.3725362579332e-03
 4.2421355423059e-03
-8.5209249663869e-03
 3.8496109124009e-03
-3.9548254810322e-03
 2.3039232962603e-03
-5.7123901962830e-18
 8.7854257289216e-18
 3.1155142349434e-17
-1.1276301895014e-02
 9.5489274518879e-03
-4.9183070145371e-03
 5.2750936419130e-03
-7.1245177792960e-03
 5.2565465352108e-03
-3.1697704986078e-03
 2.9309081703302e-03
-3.1401205420611e-17
 2.7681036716271e-18
 1.7751269475608e-17
-8.0581441702572e-03
 1.1151599551055e-02
-3.1523500696240e-03
 5.8641484605566e-03
-5.3576450337225e-03
 6.3209066462477e-03
-2.1915846534188e-03
 3.3718337063506e-03
-3.1848438816762e-18
 7.8062556418956e-18
-2.3842283399314e-17
-4.2282149240629e-03
 1.1885480677173e-02
-1.0890827993242e-03
 6.0452841174374e-03
-3.2004818607945e-03
 7.0045547936410e-03
-1.0198352061286e-03
 3.6216462198428e-03
-5.6151508139382e-17
 3.8353651851675e-18
-1.2387009820647e-17
 1.8493314003543e-04
 1.1965617405560e-02
 1.2570466475430e-03
 5.9875634275794e-03
-6.7227822301774e-04
 7.3616957722943e-03
 3.2513355130437e-04
 3.7335095504938e-03
 4.6620693416877e-18
-1.4433441421213e-18
-4.1840039462573e-17
 5.1663182599793e-03
 1.1865267063291e-02
 3.8941472781844e-03
 5.9731918701598e-03
 2.1617029067222e-03
 7.5683074087556e-03
 1.8039659698048e-03
 3.8216828876982e-03
 9.4054538463117e-18
-8.5651971626355e-18
-2.2073678605447e-17
 1.0682369085472e-02
 1.2129621899574e-02
 6.8455235369264e-03
 6.2288522337308e-03
 5.1611407610555e-03
 7.8410177444172e-03
 3.3606812865674e-03
 3.9796998321688e-03
-4.3368086899420e-18
 1.0259263057144e-17
 5.5463717386212e-18
 1.6359924191505e-02
 1.2779694147890e-02
 1.0310298909425e-02
 6.4713245276575e-03
 7.9716515784121e-03
 8.1507481152798e-03
 5.0211590430447e-03
 4.0694513662995e-03
-2.4733362059826e-17
 4.0183243017744e-18
-1.4694327568968e-17
 1.8861553751159e-02
 1.2337634886673e-02
 1.2821720124801e-02
 5.2745007463049e-03
 8.7019314936860e-03
 7.7984031683922e-03
 5.6123261464265e-03
 3.4839276627306e-03
 8.2670415652020e-18
 1.3647394846161e-17
-9.1615083575025e-18
-1.2827818903319e-02
 1.0725057705251e-02
-3.4735790952598e-02
 7.3468549314382e-03
-8.6263653451901e-03
 6.3858288867102e-03
-1.8569377865445e-02
 3.3674559834616e-03
-9.8120296609938e-18
-5.3668007538033e-18
 2.2226144535953e-18
-1.1800719736414e-01
 1.1115460797563e-02
-5.3080357184815e-02
 4.0121756349798e-03
 1.2143064331838e-17
-3.1550283219328e-17
-3.4260788650542e-17
 8.0327493686971e-06
-3.6417626219920e-06
 1.3408864553310e-05
-6.2322324726472e-06
 4.4393673637177e-06
-2.2633108731490e-06
 7.2645510494629e-06
-3.8932151371074e-06
-1.0842021724855e-19
 1.8634724839595e-20
-4.0657581468206e-20
 4.5018130257188e-05
-4.2030517425448e-05
 2.9994538519512e-05
-3.6535521309777e-05
 1.9022940439151e-05
-3.0096099168930e-05
 9.7471533327884e-06
-2.7787880499619e-05
 2.3716922523120e-20
-7.5809448779260e-19
-3.4897757426877e-19
-1.9203183928656e-05
-1.4832948739198e-04
-6.1201500200447e-05
-1.1750540458722e-04
-4.4935527387394e-05
-1.1553950119919e-04
-6.2794541960842e-05
-9.2624180807743e-05
-6.4205097401876e-19
-2.4648658765100e-19
-2.1141942363467e-18
-4.4764899839013e-04
-4.4375738033887e-04
-4.0477502970898e-04
-3.4971097256209e-04
-3.4967538034203e-04
-3.3167483744850e-04
-2.9724038406009e-04
-2.5417180223569e-04
-8.0137787139729e-18
-7.3598692786926e-18
-4.4435348412961e-18
-1.5161519226769e-03
-1.1818413288824e-03
-1.1283758919314e-03
-8.8242323277132e-04
-1.0543097780036e-03
-8.1260319448365e-04
-7.6370092915223e-04
-5.8871012279327e-04
 2.7884324623612e-18
-2.1379111588698e-18
-2.8629713617195e-18
-3.4168823134106e-03
-2.6339875092618e-03
-2.3002145478575e-03
-1.8259600516313e-03
-2.2524184016980e-03
-1.6900703703338e-03
-1.4887260049605e-03
-1.1441838528755e-03
 2.9056618222612e-17
-6.0749202977078e-18
-6.7762635780344e-18
-6.1864790212553e-03
-4.9063151773354e-03
-3.8958111235979e-03
-3.1624090634295e-03
-3.9350505200318e-03
-2.9923687843977e-03
-2.4414482371966e-03
-1.8926148597655e-03
-1.0791199748020e-17
 6.9355057721182e-18
-9.3580200012655e-18
-9.6697387114778e-03
-7.8098106553200e-03
-5.7877627664077e-03
-4.7147734666133e-03
-5.9821413066989e-03
-4.5806168789160e-03
-3.5350208694660e-03
-2.7205030257471e-03
-2.2497195079074e-18
-1.4294528017864e-17
 2.0904773138236e-17
-1.3535295689654e-02
-1.0876689876187e-02
-7.7691922342067e-03
-6.1972999178330e-03
-8.1811035069821e-03
-6.1762165189823e-03
-4.6435295341980e-03
-3.4668414635428e-03
 1.6598457634395e-17
 3.0635487636293e-17
-2.6617163334519e-17
-1.7350647213038e-02
-1.3516257780334e-02
-9.6088641098757e-03
-7.3163063589465e-03
-1.0275783295286e-02
-7.4626598601815e-03
-5.6355851729570e-03
-3.9835622048687e-03
 3.9258283039342e-17
-2.7301565955901e-17
 2.2100783659759e-17
-2.0698240887558e-02
-1.5214584621930e-02
-1.1116950009170e-02
-7.8628092682127e-03
-1.2038123266207e-02
-8.1948013889468e-03
-6.4130461822178e-03
-4.1810759214069e-03
 3.0688003679023e-17
 2.2398092224246e-17
-2.3591561646927e-17
-2.3284493418559e-02
-1.5673175264039e-02
-1.2190249114817e-02
-7.7543280584429e-03
-1.3329818979155e-02
-8.2585332514269e-03
-6.9337065031627e-03
-4.0394182594143e-03
-8.4999756256969e-18
 5.3024262498119e-19
-3.6083603553033e-18
-2.4992223191192e-02
-1.4840039658617e-02
-1.2818124481805e-02
-7.0229438401057e-03
-1.4121436897007e-02
-7.6673285835271e-03
-7.2082685572257e-03
-3.5919430290514e-03
 2.0681156440161e-17
-2.1370641259226e-17
-3.1843568377315e-17
-2.5861870090254e-02
-1.2855748376344e-02
-1.3055095682907e-02
-5.7747954740748e-03
-1.4467478013135e-02
-6.5195056673961e-03
-7.2796356531057e-03
-2.9001820020591e-03
-4.2462608678805e-17
 3.0804894225744e-17
-1.8758815166367e-17
-2.6026003474919e-02
-9.9690642793178e-03
-1.2980899928583e-02
-4.1485306798208e-03
-1.4461230568219e-02
-4.9501363813456e-03
-7.1988564879728e-03
-2.0337203087806e-03
 3.7642144175981e-18
-3.0391542147484e-17
 1.3438177708189e-18
-2.5635388808388e-02
-6.4653589253059e-03
-1.2666360182545e-02
-2.2869408645292e-03
-1.4193647617226e-02
-3.0982222404159e-03
-7.0073689600267e-03
-1.0592938139125e-03
 9.0851059856602e-17
 1.5272004038995e-17
 1.0417658218281e-17
-2.4803460987396e-02
-2.6230559527423e-03
-1.2152838441507e-02
-3.2259158930970e-04
-1.3727478693223e-02
-1.0917563117190e-03
-6.7280009282200e-03
-3.6976296196478e-05
-5.2809963162464e-17
-5.5921115177729e-18
 1.7225262015364e-17
-2.3577386664826e-02
 1.3066462685227e-03
-1.1444677722883e-02
 1.6278432516863e-03
-1.3086652509131e-02
 9.5631687584530e-04
-6.3628929406390e-03
 9.8049014123447e-04
 3.9049912934318e-17
-1.2881677061843e-17
 5.1552119235791e-17
-2.1931924567694e-02
 5.1072215108805e-03
-1.0511010948139e-02
 3.4655652213260e-03
-1.2256315637298e-02
 2.9489581320907e-03
-5.8956272325412e-03
 1.9482696731785e-03
-2.4233612620945e-17
-2.8155375166733e-17
 4.2175464509686e-17
-1.9779703020781e-02
 8.5985922649869e-03
-9.2942303208421e-03
 5.1102124338485e-03
-1.1189245694482e-02
 4.8068091519027e-03
-5.2958375367655e-03
 2.8309649863143e-03
-3.8963515573698e-19
 5.5700886611443e-18
 1.2838901898007e-17
-1.6994780466781e-02
 1.1636217766416e-02
-7.7249794476779e-03
 6.4997237863693e-03
-9.8170362270409e-03
 6.4704422514512e-03
-4.5262292518320e-03
 3.6039905719338e-03
 1.5360942498457e-18
 1.1763593571468e-17
 2.3481023847310e-17
-1.3450460650223e-02
 1.4112502564559e-02
-5.7451997968774e-03
 7.5926793828920e-03
-8.0679583635472e-03
 7.9000443226629e-03
-3.5536027047174e-03
 4.2529043039918e-03
-4.2202232074308e-17
-3.0289898193814e-18
-2.9359862635174e-17
-9.0720201683894e-03
 1.5974150315036e-02
-3.3385244919189e-03
 8.3808641168091e-03
-5.8957307011625e-03
 9.0723099099117e-03
-2.3658621025327e-03
 4.7714066566771e-03
-2.7376104855259e-18
-2.5112832820195e-17
-3.7779363513436e-17
-3.8980483937405e-03
 1.7266270111363e-02
-5.6124706175054e-04
 8.9133507813983e-03
-3.3209715132294e-03
 9.9801181552999e-03
-9.9397942898793e-04
 5.1613204504060e-03
 2.2536158594648e-17
-7.3115884006991e-18
-1.4279281424813e-17
 1.8602716144374e-03
 1.8164924803047e-02
 2.4364399126424e-03
 9.2968216579195e-03
-4.7839435141128e-04
 1.0631714734656e-02
 4.6930384637323e-04
 5.4276306899066e-03
-3.4548779852608e-17
 4.2012834183813e-19
-9.7239382344794e-19
 7.7538648137434e-03
 1.8861556126439e-02
 5.4287295403383e-03
 9.5812777733197e-03
 2.3440293386567e-03
 1.1007333394184e-02
 1.8808151243808e-03
 5.5361252477302e-03
-1.4541861638462e-17
-3.5914196963582e-19
 2.3445871979999e-18
 1.2885245668555e-02
 1.9125048862424e-02
 8.3943849541364e-03
 9.4444702386305e-03
 4.6301047505093e-03
 1.0907179061037e-02
 3.2064810185399e-03
 5.3026580815110e-03
-2.4977307548635e-17
-1.1451885446878e-18
 1.1983822137754e-17
 1.3310705774380e-02
 1.7659759949498e-02
 8.5342797191144e-03
 7.8918142488367e-03
 4.3729794821576e-03
 9.7468128761421e-03
 2.8286742036541e-03
 4.3322494400741e-03
 2.9680034471791e-18
 3.0764236644276e-18
-1.3213713977167e-17
-2.2919449133472e-02
 1.3537018013608e-02
-3.9414327102085e-02
 6.1474301016697e-03
-1.4306346320266e-02
 7.0438172779941e-03
-2.0701926486834e-02
 2.8071970218413e-03
 3.6320772778264e-18
-3.7947076036993e-18
 6.9456701674853e-18
-1.0078320691524e-01
 6.4746195817535e-03
-4.8046010576664e-02
 2.5958160885793e-03
 4.7704895589362e-18
-8.3483567281384e-18
 3.3393426912553e-17
 5.9066882926173e-06
-5.9220099741519e-06
 1.0048776708016e-05
-1.0040330527650e-05
 9.1032715332506e-07
-3.6913368671454e-06
 1.7620417714082e-06
-6.3258744983363e-06
 7.3183646642772e-19
 1.5246593050577e-19
 5.4548921803177e-19
-2.9089071274108e-06
-8.5871863170633e-05
-1.9993036721511e-05
-8.2166730710265e-05
-2.6895489798395e-05
-5.6392517740700e-05
-3.4655971790282e-05
-5.5095948462924e-05
-5.8614679949998e-19
-5.0229053772180e-19
 1.2112571145737e-18
-2.6045654237346e-04
-3.4878206925770e-04
-2.5911287660257e-04
-2.8365749386672e-04
-2.3138971904952e-04
-2.3524984491841e-04
-2.0859937617965e-04
-1.9237565846775e-04
 1.7550522667109e-18
 6.7133713817008e-18
-2.4275964268308e-18
-1.1343223861913e-03
-9.8975771351728e-04
-8.9511199411596e-04
-7.4923880980138e-04
-8.1942517984163e-04
-6.6118410925453e-04
-6.2052673318297e-04
-4.9671677469915e-04
-9.6561755986990e-19
-5.7445774482787e-18
 5.4371044884254e-18
-2.9423987864997e-03
-2.3082166497384e-03
-2.0586104902443e-03
-1.6341469381160e-03
-1.9462692870340e-03
-1.4979781893730e-03
-1.3269866616713e-03
-1.0468888919047e-03
-6.0003813983495e-18
 3.4389537658525e-18
-9.3919013191557e-18
-5.8303638277304e-03
-4.5374506854691e-03
-3.7757280541946e-03
-2.9962697655352e-03
-3.6555151325942e-03
-2.8461085263044e-03
-2.3221915429356e-03
-1.8522960584331e-03
 2.7294789692323e-17
 8.8769052872251e-18
 2.6427427954334e-18
-9.7161204989388e-03
-7.6205044463302e-03
-5.9470029306682e-03
-4.7074132555549e-03
-5.8663643806967e-03
-4.6197184170111e-03
-3.5357143318920e-03
-2.8115293452244e-03
 2.8114717585265e-17
-3.0154372922253e-18
 1.0604852499624e-18
-1.4279356161143e-02
-1.1129088095933e-02
-8.3507919310757e-03
-6.4702458849890e-03
-8.3738697056885e-03
-6.5298644040109e-03
-4.8335465332077e-03
-3.7405022770600e-03
-1.0360907010815e-17
-4.7095031867339e-19
-2.6935647722687e-17
-1.9009119767587e-02
-1.4400871206722e-02
-1.0689925679066e-02
-7.9321319747443e-03
-1.0875177917434e-02
-8.1957673548924e-03
-6.0451930363561e-03
-4.4500507699912e-03
-2.1738253558334e-17
-2.8155375166733e-18
-3.3745792618611e-18
-2.3334561438519e-02
-1.6792908178429e-02
-1.2682682639726e-02
-8.8171252630822e-03
-1.3054553641377e-02
-9.2957428153291e-03
-7.0229364545158e-03
-4.8165310013557e-03
 1.0294160814571e-16
 2.1626445209297e-17
-6.5577290776428e-18
-2.6798749284689e-02
-1.7891316795766e-02
-1.4151003389792e-02
-8.9988270292558e-03
-1.4692500857937e-02
-9.6643438128150e-03
-7.6919554881840e-03
-4.8058063680934e-03
 3.1175894656642e-17
-4.5688957174897e-18
 3.1827262993080e-17
-2.9179324881499e-02
-1.7581582507300e-02
-1.5053813939361e-02
-8.4939336848464e-03
-1.5722285726916e-02
-9.3008739475464e-03
-8.0575197127226e-03
-4.4532723830999e-03
-1.5169513052377e-17
-3.6737512988314e-17
 1.2299341910606e-17
-3.0496670722223e-02
-1.5988378432037e-02
-1.5458414808480e-02
-7.4085039774303e-03
-1.6207837136584e-02
-8.3132721328949e-03
-8.1772069294637e-03
-3.8274644417218e-03
-4.3119059212927e-17
-1.8262030342803e-18
 5.3212303812410e-17
-3.0931785023378e-02
-1.3361158130044e-02
-1.5482779167646e-02
-5.8806063473327e-03
-1.6279512425978e-02
-6.8482142642452e-03
-8.1248960430953e-03
-3.0008904719514e-03
-2.2852948916921e-18
 2.2825843862609e-17
 6.5617101324949e-17
-3.0718245025827e-02
-9.9774255995415e-03
-1.5243702272765e-02
-4.0440982987029e-03
-1.6073188344414e-02
-5.0443564513762e-03
-7.9647662923890e-03
-2.0359793017395e-03
-2.9930756224178e-17
-4.5163796747599e-18
 6.0145268485686e-17
-3.0058549116110e-02
-6.0917864344265e-03
-1.4825908662583e-02
-2.0154563031163e-03
-1.5693403534762e-02
-3.0155378204440e-03
-7.7391497965920e-03
-9.8284614036714e-04
 6.5123281116700e-17
-5.4311752577946e-18
 5.8038697545865e-18
-2.9080358920736e-02
-1.9231784788527e-03
-1.4270590006607e-02
 1.0557979941694e-04
-1.5199422670207e-02
-8.5297071165935e-04
-7.4662283434268e-03
 1.1735293254489e-04
-5.0101998830092e-18
 1.3791390447194e-17
-1.2126970705840e-17
-2.7825032614239e-02
 2.3391583928163e-03
-1.3576221016946e-02
 2.2311119606044e-03
-1.4605394065789e-02
 1.3660115490506e-03
-7.1426256539056e-03
 1.2280639604647e-03
-1.8962208952827e-17
-3.7154253198363e-17
-1.0563242006090e-17
-2.6255365948735e-02
 6.5271795629025e-03
-1.2705719151620e-02
 4.2819451862499e-03
-1.3887228465478e-02
 3.5702083311446e-03
-6.7479970864532e-03
 2.3143768843053e-03
 6.0068188487486e-17
-9.4766046138811e-18
-1.3136951616322e-17
-2.4273327529913e-02
 1.0492034824798e-02
-1.1596968660968e-02
 6.1888118874904e-03
-1.2992730360537e-02
 5.6913309837718e-03
-6.2507868393258e-03
 3.3426656524353e-03
-4.0566101909903e-17
 2.2442984970450e-17
-2.2363999148118e-17
-2.1744433352936e-02
 1.4110444876508e-02
-1.0176520774026e-02
 7.8973259076704e-03
-1.1854526018379e-02
 7.6663622978261e-03
-5.6154968192885e-03
 4.2830837447445e-03
-5.5175726184145e-18
-1.7052467294124e-17
-6.1706350207476e-19
-1.8531408083048e-02
 1.7293617694477e-02
-8.3795141451999e-03
 9.3720590625246e-03
-1.0407309538582e-02
 9.4430109732854e-03
-4.8125758759561e-03
 5.1128090966639e-03
-4.6886661762314e-17
 4.5739779151732e-17
-5.0991383424709e-19
-1.4546007389300e-02
 1.9986649037669e-02
-6.1821170083270e-03
 1.0592329136603e-02
-8.6130981248154e-03
 1.0979798990182e-02
-3.8330771595074e-03
 5.8139996353921e-03
 7.2404376331298e-18
 1.7347234759768e-18
-9.2275769273883e-18
-9.8289488017422e-03
 2.2147317188375e-02
-3.6498031153189e-03
 1.1534117400768e-02
-6.4992525979122e-03
 1.2228714135885e-02
-2.7098804477168e-03
 6.3591870041870e-03
 5.8213186332999e-17
 5.7056139327050e-18
 7.6639541067569e-18
-4.6512466589173e-03
 2.3695998995442e-02
-9.8405787340627e-04
 1.2133737125511e-02
-4.2064772375099e-03
 1.3095409864846e-02
-1.5389849662237e-03
 6.6835502174101e-03
 5.2866714369930e-17
-9.9611074597106e-19
 2.5207700510288e-17
 4.0118686803003e-04
 2.4411031832224e-02
 1.5069390960406e-03
 1.2217121814428e-02
-2.0252518001644e-03
 1.3386271434144e-02
-4.6461044341717e-04
 6.6538182781688e-03
 3.4829994791097e-17
 1.4640117460343e-17
 4.4862253018377e-17
 4.2989948496088e-03
 2.3730634785660e-02
 3.7706013255875e-03
 1.1378068166314e-02
-4.4628982992023e-04
 1.2761496537044e-02
 5.0011528986160e-04
 6.0496261383518e-03
-3.6693467275056e-17
-1.0448998437329e-17
 1.1223186551119e-17
 3.0547219386530e-03
 2.0586028459347e-02
 2.3584891226544e-03
 9.0144059619026e-03
-1.4201736053314e-03
 1.0759360124649e-02
-4.9117689314038e-04
 4.6619524195155e-03
 1.3528810233546e-17
 1.1031757105040e-17
-3.7692966152816e-18
-3.4539806224203e-02
 1.4270677306044e-02
-4.3575792962802e-02
 5.2897649100254e-03
-2.0235707868905e-02
 7.1672226727788e-03
-2.2745326803136e-02
 2.4933608922761e-03
 1.0381235801549e-17
-1.6127507315722e-18
 7.6978354246471e-18
-9.4115255030610e-02
 4.4852998900503e-03
-4.6172877445471e-02
 1.9663093196058e-03
 1.8865117801248e-17
 2.5804011705155e-17
 4.7054374285871e-17
-9.0158026410658e-06
-9.4327789771920e-06
-1.2863713428846e-05
-1.5918046609054e-05
-1.0835796079523e-05
-5.7377873322606e-06
-1.6262406622947e-05
-9.7664348457927e-06
 9.4867690092482e-20
-2.3716922523120e-20
 3.8285889215894e-19
-1.5669643677368e-04
-1.4981626835808e-04
-1.6035756095356e-04
-1.4927987749469e-04
-1.3773728247368e-04
-9.3775058021994e-05
-1.3326407636534e-04
-9.4638562060101e-05
 2.3208702754768e-18
 1.7364175418713e-19
-1.6906777627196e-18
-7.8954275518660e-04
-6.4618022355353e-04
-6.5202857560620e-04
-5.3432289727429e-04
-5.8155391946590e-04
-4.1204208437162e-04
-4.6114544598483e-04
-3.4267305009267e-04
 4.3927128644608e-18
-5.0356108714268e-18
-1.7491230360801e-18
-2.3114243925870e-03
-1.8199312778430e-03
-1.6716345377711e-03
-1.3594002208475e-03
-1.5367722917497e-03
-1.1599281759691e-03
-1.0793027746962e-03
-8.6399300247930e-04
 3.2390539903004e-18
-8.8887637484866e-18
 4.7433845046241e-18
-4.9764700335171e-03
-4.0189768632137e-03
-3.3023103833030e-03
-2.7611261693585e-03
-3.0928227318016e-03
-2.5202779949060e-03
-2.0069729570116e-03
-1.7164459355606e-03
-1.6574740711872e-17
-4.9060148304969e-18
-4.6010829694854e-18
-8.8155001665258e-03
-7.3375442634030e-03
-5.5067716190288e-03
-4.6741897625733e-03
-5.2287186076472e-03
-4.4859759330346e-03
-3.2103180664074e-03
-2.8237830089071e-03
-3.1374100366299e-17
 3.1164036195380e-17
-1.1539976873393e-17
-1.3607023818166e-02
-1.1402893980893e-02
-8.1047942278643e-03
-6.7911547129684e-03
-7.8015953967237e-03
-6.7700679052927e-03
-4.5820826136693e-03
-3.9785059273849e-03
 5.9922498820558e-17
-2.0125502826762e-18
 1.6351124013797e-17
-1.8851010988794e-02
-1.5461253160621e-02
-1.0770917878005e-02
-8.6791659736853e-03
-1.0512130425842e-02
-8.9100749507780e-03
-5.9306391890126e-03
-4.9334002874630e-03
-2.2680154195681e-17
 1.5548136779800e-17
 1.6659444006598e-17
-2.3856810740048e-02
-1.8691393052884e-02
-1.3128612900126e-02
-9.9650323402827e-03
-1.2966174999370e-02
-1.0470765903764e-02
-7.0505373395879e-03
-5.5088657084061e-03
 3.4206578541918e-17
 5.4735269051573e-18
 3.4762232155316e-17
-2.7980723481846e-02
-2.0517416167843e-02
-1.4900725565376e-02
-1.0461722360294e-02
-1.4841969703255e-02
-1.1202225398958e-02
-7.8195032055266e-03
-5.6452902258304e-03
-1.2393786084225e-17
 6.4459207286052e-18
-1.8905775382716e-18
-3.0857601599568e-02
-2.0751335556021e-02
-1.5997950548857e-02
-1.0178211339543e-02
-1.6015740354316e-02
-1.1081455777907e-02
-8.2309798884168e-03
-5.3850936949571e-03
-9.1606613245553e-17
-2.4479252175649e-17
-1.2673306956819e-17
-3.2467992380037e-02
-1.9533977884493e-02
-1.6497062427982e-02
-9.2457438549296e-03
-1.6555439459442e-02
-1.0245308227666e-02
-8.3582207882369e-03
-4.8189397183913e-03
 5.9471877292619e-17
-1.8634724839595e-18
 6.6661492948913e-18
-3.3039949988616e-02
-1.7169787573904e-02
-1.6557396989424e-02
-7.8301386817401e-03
-1.6630356258606e-02
-8.8841143919409e-03
-8.2995852495884e-03
-4.0384525401969e-03
-2.1357088732070e-17
 1.7452266845228e-17
 1.0459162832696e-17
-3.2892594820166e-02
-1.3978064210860e-02
-1.6342840595256e-02
-6.0766173445686e-03
-1.6421002559397e-02
-7.1654115540247e-03
-8.1407547562087e-03
-3.1137571203015e-03
 3.1785758378665e-17
 5.3701888855923e-18
 4.7140771646491e-17
-3.2315097341725e-02
-1.0217975378710e-02
-1.5978839773299e-02
-4.0932118031236e-03
-1.6068833276762e-02
-5.2076436122621e-03
-7.9401244241701e-03
-2.0913114271099e-03
 1.7818185078441e-17
 1.0493044150586e-17
-2.4578355030478e-17
-3.1508914023580e-02
-6.0774923387887e-03
-1.5539790519772e-02
-1.9569331571887e-03
-1.5662071899953e-02
-3.0862912516383e-03
-7.7287049703969e-03
-1.0007222460455e-03
-4.4719104450291e-17
-2.5614276324970e-17
-3.1042486967449e-17
-3.0576654267820e-02
-1.6933495454214e-03
-1.5052098197409e-02
 2.7321669146119e-04
-1.5240071800555e-02
-8.5047703820584e-04
-7.5151118820003e-03
 1.3721748995899e-04
 7.6313856899350e-17
-2.4250553279891e-17
-3.1356312674407e-17
-2.9532814367460e-02
 2.8229692016426e-03
-1.4502319046354e-02
 2.5445045877532e-03
-1.4802757056785e-02
 1.4614913941484e-03
-7.2906690615380e-03
 1.3040323883011e-03
-5.9389715096735e-17
 2.5026435459576e-17
 2.4145097677958e-17
-2.8321326324658e-02
 7.3643032470923e-03
-1.3846450848756e-02
 4.8022995203780e-03
-1.4319598053582e-02
 3.8103656283595e-03
-7.0336271681253e-03
 2.4786823396816e-03
-6.2180688657938e-17
 1.5643004469892e-17
 5.3779815887070e-17
-2.6835899115285e-02
 1.1815094360865e-02
-1.3020862880970e-02
 6.9858872732453e-03
-1.3738278512967e-02
 6.1474515934177e-03
-6.7136377968655e-03
 3.6339366544294e-03
 3.2993627361450e-17
-2.1175823681357e-19
-8.1675998971943e-17
-2.4945454118867e-02
 1.6047942980317e-02
-1.1956964083292e-02
 9.0286412344902e-03
-1.2995897370729e-02
 8.4091924572018e-03
-6.2982545745900e-03
 4.7342858707378e-03
 8.9480560547944e-18
 6.5933044614275e-18
 2.6606998939152e-17
-2.2528658156240e-02
 1.9928410041939e-02
-1.0601467933682e-02
 1.0861327551233e-02
-1.2035677617504e-02
 1.0515474431894e-02
-5.7626742291266e-03
 5.7358083353041e-03
 2.0562571827545e-17
 2.3479753297889e-17
 1.3972655497907e-17
-1.9521240628910e-02
 2.3318269707358e-02
-8.9438214235701e-03
 1.2411199667898e-02
-1.0830304473117e-02
 1.2369740983614e-02
-5.1025963366955e-03
 6.5859651876865e-03
 3.3254513509204e-17
-7.1963919198725e-18
-5.3163175901469e-17
-1.5979380104394e-02
 2.6053233996516e-02
-7.0517050903994e-03
 1.3581874100726e-02
-9.4104170366940e-03
 1.3851287144823e-02
-4.3486928419929e-03
 7.2161078425745e-03
-4.5792295194462e-17
-1.3145951341387e-17
 1.4125121428413e-17
-1.2155535723957e-02
 2.7870895767906e-02
-5.1037400103200e-03
 1.4204208774236e-02
-7.8935086296248e-03
 1.4785809715571e-02
-3.5774968309656e-03
 7.5196546781409e-03
 5.2726106900686e-17
 1.0611628763202e-17
-2.3574620987982e-17
-8.5605871162739e-03
 2.8303316561243e-02
-3.3527552264018e-03
 1.3979197795734e-02
-6.5031927987285e-03
 1.4900287684501e-02
-2.8912569624309e-03
 7.3280217036960e-03
 3.2526065174565e-18
 2.9544509200230e-17
-2.0189877330753e-17
-6.0796091207362e-03
 2.6618786923252e-02
-1.7739237440710e-03
 1.2472665941830e-02
-5.6242977536574e-03
 1.3816868754562e-02
-2.2550530522767e-03
 6.4262936422507e-03
-6.2561853484203e-18
 6.4374503991327e-19
 1.6066520943520e-17
-8.5509999546898e-03
 2.2004540721049e-02
-4.2147422801442e-03
 9.4084265052357e-03
-7.1259365757639e-03
 1.1200189290968e-02
-3.6870361823618e-03
 4.7499790449609e-03
 1.7271001794515e-18
-1.6649279611230e-17
 2.6557023995264e-17
-4.5788313989692e-02
 1.4342827981663e-02
-4.7206111074132e-02
 4.8498922472975e-03
-2.5502408579297e-02
 7.1483471751943e-03
-2.4359680483714e-02
 2.3575706728676e-03
 7.7249404789592e-18
 5.0212113113235e-18
-1.7902888373167e-17
-9.1283897323327e-02
 3.6678660740858e-03
-4.5109900552179e-02
 1.7544157238323e-03
 4.7704895589362e-17
 8.8362477057569e-17
-2.7755575615629e-17
-4.4880090316446e-05
-1.4625053468748e-05
-6.7178624013509e-05
-2.4783990985266e-05
-3.5458599308536e-05
-8.8528029119628e-06
-5.3452021961470e-05
-1.5083912290215e-05
-1.0130514049161e-18
-1.3891340334970e-19
-6.1494591970662e-19
-4.5741087123978e-04
-2.4522412003300e-04
-4.1753798701127e-04
-2.5112482572753e-04
-3.3134263364909e-04
-1.5161705825817e-04
-2.9487326473794e-04
-1.5675089582495e-04
-5.0241759266389e-18
 2.5978500492289e-18
 1.4829429324055e-18
-1.6381678416305e-03
-1.0968678998961e-03
-1.2387379784364e-03
-9.1465791836676e-04
-1.0860333100434e-03
-6.8526366993060e-04
-7.9919915093366e-04
-5.7305780401018e-04
 3.4491181612195e-18
 1.6181717424346e-17
-1.0672615135404e-18
-3.8864027231205e-03
-3.0601653557893e-03
-2.6431375622626e-03
-2.2537020141931e-03
-2.3951059891245e-03
-1.8999146191870e-03
-1.5910337791275e-03
-1.3928833695265e-03
 1.4284363622496e-17
-5.0008825205894e-18
 7.4403374086818e-18
-7.3132760052657e-03
-6.4534883175946e-03
-4.6526279933684e-03
-4.3137543656480e-03
-4.2702158581769e-03
-3.9304530251449e-03
-2.6674337712923e-03
-2.6027955358363e-03
-4.6756218688437e-19
-2.9137933385548e-19
 5.6310750333466e-18
-1.1855616805724e-02
-1.1049555215272e-02
-7.1877700898069e-03
-6.8152793777054e-03
-6.6691646228554e-03
-6.5569203289700e-03
-3.9871905381097e-03
-3.9971635161833e-03
-2.4787572168450e-17
-2.1955093992831e-18
-3.7150865066574e-17
-1.7158373315308e-02
-1.6030654439943e-02
-9.9736455016009e-03
-9.2375093497310e-03
-9.3795965677206e-03
-9.2499166969753e-03
-5.3840484950931e-03
-5.2628570351287e-03
-3.5060387752750e-17
 3.1821333762450e-17
-1.2319247184866e-17
-2.2504601509622e-02
-2.0337417828781e-02
-1.2563482447481e-02
-1.1056933042806e-02
-1.1973679366996e-02
-1.1416515720030e-02
-6.5995592389640e-03
-6.1270699440632e-03
-4.6891743959998e-18
 1.2397174216014e-17
 7.9383927816673e-18
-2.7059584964751e-02
-2.3121225290183e-02
-1.4552526377587e-02
-1.1965816873531e-02
-1.4009769759870e-02
-1.2648128164670e-02
-7.4408963338000e-03
-6.4660585078435e-03
 8.1836935231921e-17
-8.3348042009823e-19
 5.9072077741515e-17
-3.0262111683164e-02
-2.4032007448744e-02
-1.5770197345132e-02
-1.1938834745951e-02
-1.5271353296423e-02
-1.2844799723063e-02
-7.8727310617275e-03
-6.3151628861782e-03
-8.7488339056002e-17
-2.1216481262826e-17
 6.6890191844672e-18
-3.2014762798509e-02
-2.3212482669227e-02
-1.6291783879548e-02
-1.1146772843169e-02
-1.5812842156805e-02
-1.2166821371841e-02
-7.9815250784927e-03
-5.7979349872728e-03
-3.3105435710487e-17
-1.9264917352352e-17
 1.3106987825813e-17
-3.2584618047926e-02
-2.1071732321713e-02
-1.6321138027787e-02
-9.8180781268340e-03
-1.5841701017600e-02
-1.0879078576666e-02
-7.8925288420191e-03
-5.0451164513099e-03
 1.8712651870742e-17
-1.3078188705606e-17
 5.4142345988495e-17
-3.2378038239449e-02
-1.8040994693257e-02
-1.6070457477641e-02
-8.1433263862394e-03
-1.5583296512638e-02
-9.2166961996278e-03
-7.7120433634636e-03
-4.1519270312200e-03
-2.9446253378348e-17
-7.1760631291384e-18
 3.8009756475089e-17
-3.1763734380735e-02
-1.4443349766885e-02
-1.5699328240413e-02
-6.2464533930466e-03
-1.5208959901536e-02
-7.3331560935832e-03
-7.5091264659921e-03
-3.1731083075659e-03
-2.9617354033694e-17
 2.8731357570866e-18
 1.5680273919572e-17
-3.0999170601112e-02
-1.0475678286260e-02
-1.5304498466905e-02
-4.1966270879641e-03
-1.4823082601211e-02
-5.3087955066102e-03
-7.3203021590338e-03
-2.1347744438653e-03
 8.4483066159144e-18
 2.5292403805013e-18
 1.4786230643745e-17
-3.0228756775934e-02
-6.2440802307995e-03
-1.4931506672213e-02
-2.0306129976220e-03
-1.4477092755989e-02
-3.1783889013170e-03
-7.1601001372468e-03
-1.0475424548222e-03
-4.0797341904503e-17
 1.2285789383450e-17
 6.0227430681570e-17
-2.9507998880882e-02
-1.8063342023797e-03
-1.4588720838506e-02
 2.2889666805526e-04
-1.4186835102386e-02
-9.5496334700162e-04
-7.0291922195906e-03
 8.4312238231021e-05
 2.7232109254226e-17
 9.0923692931829e-18
 3.8658583712686e-18
-2.8827161097767e-02
 2.7959858364790e-03
-1.4257038656132e-02
 2.5609246209370e-03
-1.3944348466808e-02
 1.3547022476363e-03
-6.9186338109510e-03
 1.2570563176819e-03
 8.8441251121663e-17
-2.2611121010480e-17
-1.6659444006598e-17
-2.8127485604667e-02
 7.5149991319741e-03
-1.3895905255360e-02
 4.9369405725557e-03
-1.3723790230500e-02
 3.7394328104769e-03
-6.8115798335526e-03
 2.4627647155420e-03
-5.4040702034824e-18
-2.8680535594031e-18
 3.8530681737651e-17
-2.7313737138716e-02
 1.2277928630887e-02
-1.3449425322795e-02
 7.3119818153700e-03
-1.3484805147336e-02
 6.1733934857580e-03
-6.6846772382174e-03
 3.6838076699102e-03
 3.9326045675123e-17
 1.2378539491174e-17
-3.7570993408412e-17
-2.6270947475383e-02
 1.6969344336024e-02
-1.2857110768192e-02
 9.6157176531975e-03
-1.3177746106493e-02
 8.6038736632632e-03
-6.5115015566022e-03
 4.8860896069396e-03
-3.0982771144668e-17
 3.1453721463341e-17
-2.3750803841011e-18
-2.4892895111933e-02
 2.1415846896493e-02
-1.2072374132494e-02
 1.1745223457801e-02
-1.2754931643045e-02
 1.0938157366721e-02
-6.2699186845343e-03
 6.0123293741548e-03
 4.1064157282889e-18
-4.9839418616443e-18
 1.2297224328238e-17
-2.3124886768633e-02
 2.5375903413093e-02
-1.1087618558272e-02
 1.3560556442524e-02
-1.2189662813412e-02
 1.3033374571753e-02
-5.9532578025401e-03
 6.9777821752499e-03
 1.7020280042128e-17
 1.8284053199431e-17
 2.3035908033528e-17
-2.1014483139599e-02
 2.8528985336991e-02
-9.9589472850103e-03
 1.4877807286023e-02
-1.1499085230287e-02
 1.4692159612149e-02
-5.5814730166963e-03
 7.6691068229246e-03
-6.0300275515034e-17
-4.7501607682021e-18
 4.8226667884871e-17
-1.8755728876176e-02
 3.0445118741078e-02
-8.8170535305055e-03
 1.5448441751126e-02
-1.0761174719338e-02
 1.5660105245494e-02
-5.2044902629849e-03
 7.9427304732142e-03
 1.6889836968251e-17
-1.9857840415430e-17
-1.4616400537820e-17
-1.6714408526877e-02
 3.0533782366264e-02
-7.8183620809871e-03
 1.4933616978144e-02
-1.0120015927320e-02
 1.5621002104111e-02
-4.8770088767478e-03
 7.6231794685850e-03
-3.7100043089738e-17
-2.3276465390548e-17
-2.0328790734103e-19
-1.5554007288650e-02
 2.8059568605352e-02
-6.8459311387254e-03
 1.2941163387179e-02
-9.8512139572264e-03
 1.4221737497190e-02
-4.5242956599201e-03
 6.5296948766427e-03
-3.0713414667441e-17
-2.1938153333886e-17
-1.3711769350153e-17
-1.8975912319931e-02
 2.2478582879977e-02
-1.0093934346912e-02
 9.4558405401737e-03
-1.1778275406710e-02
 1.1259079406103e-02
-6.3369722859465e-03
 4.7146768035652e-03
 3.3573527292964e-17
-1.0150842839895e-17
-2.0846433743994e-17
-5.5074292682341e-02
 1.4238769202037e-02
-4.9698289056435e-02
 4.6828991423111e-03
-2.9476241828135e-02
 7.0836339015661e-03
-2.5256138346237e-02
 2.3212552965950e-03
 6.5865281978494e-18
-7.1421818112483e-18
 3.1983964088322e-17
-8.8828428566769e-02
 3.4537428934200e-03
-4.3672822407897e-02
 1.7288853869140e-03
-5.1174342541316e-17
-4.0007060164715e-17
-6.2883726004159e-18
-1.1003646878774e-04
-2.2828890520354e-05
-1.6398099020976e-04
-3.9377332747836e-05
-7.6511248917832e-05
-1.3929631564214e-05
-1.1413571811569e-04
-2.4115193478336e-05
-8.5126811199057e-19
-8.1145756346962e-19
-9.6138239513363e-19
-9.1858417860290e-04
-3.9566012152223e-04
-7.8687412700540e-04
-4.1157711915574e-04
-6.0183662205793e-04
-2.4407156193407e-04
-5.0503223052331e-04
-2.5523067111821e-04
-1.5212711732687e-18
-1.2790197503540e-19
 7.8435250915748e-19
-2.7134235395222e-03
-1.7807369872818e-03
-1.9280389491827e-03
-1.4768551403161e-03
-1.6567598626662e-03
-1.0953280831940e-03
-1.1502407651523e-03
-9.0670442468677e-04
-1.8295911660693e-19
 5.8038697545865e-18
 5.0144350477455e-18
-5.5514494977732e-03
-4.8135484403323e-03
-3.6029217905437e-03
-3.4688069019504e-03
-3.1896516681340e-03
-2.9123300289939e-03
-2.0307325911411e-03
-2.0829209728961e-03
-3.0222135558033e-18
-4.9873299934333e-18
 1.0875903042745e-17
-9.4642402950561e-03
-9.6048298840076e-03
-5.8349993056539e-03
-6.2392721017614e-03
-5.2187803786175e-03
-5.6718169603415e-03
-3.1748759198529e-03
-3.6464248405610e-03
 2.6224140046993e-17
-2.1819568721271e-18
-7.9553334406124e-18
-1.4370232141333e-02
-1.5435847997363e-02
-8.5108105477376e-03
-9.2390705467675e-03
-7.7109047215096e-03
-8.8766290653535e-03
-4.5167350955773e-03
-5.2523677857303e-03
-3.3285006695305e-17
 1.0198276684942e-17
-1.8631336707806e-17
-1.9712592397363e-02
-2.1031743809911e-02
-1.1202970830912e-02
-1.1762714357717e-02
-1.0313340728720e-02
-1.1783131400393e-02
-5.7903110745570e-03
-6.5102836840580e-03
 6.3805297850772e-17
 1.1519648082658e-19
 2.3483141429678e-17
-2.4524311690990e-02
-2.5139871608086e-02
-1.3366721537827e-02
-1.3278763553508e-02
-1.2476942601793e-02
-1.3735280044539e-02
-6.7100355028575e-03
-7.1652712554045e-03
 7.1354055476702e-18
 5.6332773190094e-17
 7.5114881762511e-18
-2.7982859041823e-02
-2.7051846775700e-02
-1.4691577954213e-02
-1.3634937865653e-02
-1.3838040837271e-02
-1.4434662703968e-02
-7.1743073749086e-03
-7.1919769402777e-03
 2.3580550218613e-17
 2.7308342219479e-18
-3.2390539903004e-18
-2.9834188703199e-02
-2.6791430331460e-02
-1.5216663372909e-02
-1.3016945893202e-02
-1.4392547706166e-02
-1.3999637988911e-02
-7.2682090146028e-03
-6.7383732652999e-03
-2.5275463146068e-17
-1.1113072267976e-17
 2.2412491784349e-17
-3.0353917858961e-02
-2.4877794647294e-02
-1.5189145553286e-02
-1.1746176744957e-02
-1.4376198480690e-02
-1.2780882540452e-02
-7.1469667189152e-03
-5.9948958388389e-03
-1.7276083992199e-17
 3.4416642712837e-17
-6.1128673737448e-17
-3.0038054760837e-02
-2.1929562399943e-02
-1.4876386719645e-02
-1.0102352272149e-02
-1.4064745017876e-02
-1.1126317108864e-02
-6.9416347596842e-03
-5.1052360891539e-03
 8.8091426514447e-18
-1.1722935989999e-17
 6.1731761195893e-18
-2.9334965321729e-02
-1.8411627252648e-02
-1.4469609709855e-02
-8.2586027309688e-03
-1.3659919968575e-02
-9.2644313666568e-03
-6.7301359086933e-03
-4.1477352208634e-03
 7.7927031147396e-18
-1.4446993948369e-17
 3.3644148664941e-17
-2.8541424487368e-02
-1.4584205420517e-02
-1.4075365131822e-02
-6.2970419175343e-03
-1.3273170505215e-02
-7.3049057425469e-03
-6.5479325405953e-03
-3.1536088648547e-03
 1.0836939527172e-17
 8.8464121011239e-18
-1.9436865040644e-17
-2.7814910752975e-02
-1.0558348031868e-02
-1.3741720337645e-02
-4.2466698132060e-03
-1.2953061543129e-02
-5.2832489094079e-03
-6.4070495781756e-03
-2.1295812264377e-03
 3.6601140683806e-17
 3.0870115762683e-18
-5.5448894309635e-17
-2.7221634304408e-02
-6.3659886563334e-03
-1.3484074555776e-02
-2.1128927382747e-03
-1.2715191126880e-02
-3.2006996185732e-03
-6.3094600746396e-03
-1.0726890039905e-03
 1.0046657787383e-17
-1.1773757966835e-18
-1.9917979754685e-18
-2.6776181059544e-02
-2.0075273790425e-03
-1.3300219682779e-02
 1.0627726596368e-04
-1.2560620777038e-02
-1.0469612906776e-03
-6.2532791950911e-03
 2.2617020984939e-05
 6.1172719450706e-18
 1.6930494549719e-17
-1.5177559865376e-17
-2.6462556906117e-02
 2.5227996882320e-03
-1.3176020149083e-02
 2.4118691105102e-03
-1.2483359287280e-02
 1.1895036050731e-03
-6.2341894010753e-03
 1.1612593148342e-03
-7.8164200372627e-18
-4.1055686953416e-18
-3.7273684843925e-17
-2.6241203548889e-02
 7.2211314236750e-03
-1.3085972184607e-02
 4.7967241912446e-03
-1.2471190408121e-02
 3.5153905283021e-03
-6.2445520260450e-03
 2.3444537500428e-03
-1.2910476182050e-17
-1.3692287592366e-17
 6.1240482086486e-19
-2.6050178842268e-02
 1.2055706602920e-02
-1.2993089859495e-02
 7.2345835387608e-03
-1.2503919331756e-02
 5.9238604296217e-03
-6.2720981156286e-03
 3.5640083689223e-03
-1.4400407136270e-17
-8.3348042009823e-18
 1.3219643207798e-17
-2.5809127435551e-02
 1.6939308053372e-02
-1.2852674239691e-02
 9.6637370619561e-03
-1.2552669284503e-02
 8.3791532722581e-03
-6.3000223804153e-03
 4.7926907861626e-03
 4.2773469770448e-17
-7.8824886071485e-18
-5.1389488909918e-18
-2.5434274586993e-02
 2.1693347058640e-02
-1.2624035209686e-02
 1.1967699626098e-02
-1.2583860111313e-02
 1.0794483815023e-02
-6.3104145978166e-03
 5.9717631150811e-03
 2.0840398634245e-17
-6.9236473108567e-18
-5.5175726184145e-18
-2.4869121428239e-02
 2.6013757970102e-02
-1.2290603800556e-02
 1.3960106903333e-02
-1.2570509031498e-02
 1.3009250072814e-02
-6.2919602468767e-03
 7.0003330869568e-03
-5.8916223679220e-17
 2.7105054312138e-18
 8.8243892444953e-18
-2.4125096690872e-02
 2.9454639915921e-02
-1.1880360768063e-02
 1.5382496404694e-02
-1.2509045727889e-02
 1.4777773515534e-02
-6.2491705272381e-03
 7.7339835811330e-03
-8.4432244182309e-18
 2.1238504119454e-17
 1.8556797808447e-17
-2.3312491817052e-02
 3.1438887392858e-02
-1.1468577772928e-02
 1.5916972740477e-02
-1.2432417455063e-02
 1.5781583742589e-02
-6.2044727461252e-03
 7.9977317380067e-03
-8.6990283683017e-17
 1.7312506408931e-17
 1.0198276684942e-18
-2.2648602371021e-02
 3.1293032421372e-02
-1.1123638509010e-02
 1.5210140285795e-02
-1.2412886241975e-02
 1.5666783973169e-02
-6.1729751369377e-03
 7.6105580779169e-03
 3.2238073972499e-18
 1.7203239158735e-17
 5.5904174518784e-20
-2.2601380529565e-02
 2.8340189125439e-02
-1.0670417260492e-02
 1.2938670859118e-02
-1.2640289717815e-02
 1.4110905258474e-02
-6.0609011610651e-03
 6.4270843806233e-03
 3.2029703867474e-17
-1.9566461081574e-17
-9.5333558213472e-18
-2.6825192915737e-02
 2.2295814268364e-02
-1.4658575527047e-02
 9.3034332141286e-03
-1.4941483777051e-02
 1.1032400252105e-02
-8.2389706199062e-03
 4.5978192236999e-03
 1.1722935989999e-18
-1.4365678785433e-18
-4.7552429658856e-18
-6.1459583692220e-02
 1.4046278321939e-02
-5.0628293029941e-02
 4.6373405933129e-03
-3.1861035931087e-02
 6.9653611627807e-03
-2.5299257499220e-02
 2.3126937116178e-03
-3.7133924407629e-17
-4.4520051707686e-18
 1.2197274440462e-18
-8.5118238363133e-02
 3.4761884914705e-03
-4.1389960746121e-02
 1.7602986885574e-03
-9.3241386833753e-17
-3.7242344624877e-17
-2.1684043449710e-17
-2.0643825653072e-04
-3.5994073004697e-05
-3.0333293125495e-04
-6.3685635666388e-05
-1.3212152444852e-04
-2.2063215691093e-05
-1.9376539071112e-04
-3.9161172727842e-05
 3.5473739831010e-18
 7.7927031147396e-20
 5.1499603193061e-19
-1.4859930469142e-03
-6.2784743642608e-04
-1.2056324196994e-03
-6.5380895351552e-04
-8.9845543546963e-04
-3.8382703037421e-04
-7.1412215801782e-04
-3.9994116155817e-04
 3.7879313401212e-18
 5.3075084474954e-18
 3.7540500222311e-18
-3.7657399345263e-03
-2.7519971671153e-03
-2.5409114587667e-03
-2.2418086130465e-03
-2.1294719457305e-03
-1.6563195757215e-03
-1.4069390922425e-03
-1.3411394212431e-03
 2.8731357570866e-18
-7.5690864166644e-18
 8.7752613335545e-18
-6.8757341369354e-03
-7.0632841440321e-03
-4.3124982312723e-03
-4.9569528954061e-03
-3.6986564100401e-03
-4.1500319400800e-03
-2.2888609607419e-03
-2.8852152100860e-03
 1.6757699828479e-17
 2.5505856107722e-17
-8.9514441865835e-18
-1.0968411357106e-02
-1.3263817075335e-02
-6.6246375928489e-03
-8.3814028964451e-03
-5.7486584337703e-03
-7.5931901605080e-03
-3.4438229619007e-03
-4.7490378707149e-03
-1.9461428996115e-17
-2.3066401219629e-17
 5.0313757066905e-18
-1.5912513165963e-02
-2.0090894666889e-02
-9.2491288766566e-03
-1.1704353446589e-02
-8.1814230674571e-03
-1.1221953576537e-02
-4.7100617340723e-03
-6.4668748303109e-03
 7.1286292840922e-17
-1.4684163173601e-17
 2.9408983928669e-18
-2.0813171323277e-02
-2.5886847404175e-02
-1.1566989666979e-02
-1.4093674276335e-02
-1.0440166918301e-02
-1.4123421861470e-02
-5.7284805774760e-03
-7.5989040757394e-03
 5.3986491926200e-17
-4.2080596819594e-18
-2.0037411400248e-17
-2.4556247746299e-02
-2.9337712045204e-02
-1.3056078751257e-02
-1.5098191949424e-02
-1.1965498246472e-02
-1.5641302592777e-02
-6.2746438003094e-03
-7.9527958951102e-03
-2.6715419156401e-17
-4.4648800715669e-17
-1.6441756539153e-17
-2.6594567179500e-02
-3.0053461515252e-02
-1.3636100263640e-02
-1.4802084589675e-02
-1.2606658034667e-02
-1.5679602452089e-02
-6.3879964404814e-03
-7.6397233121330e-03
-1.3068024310239e-17
-5.0327309594062e-17
-3.4558944247976e-18
-2.7126044563654e-02
-2.8541205755461e-02
-1.3573959883944e-02
-1.3615658225973e-02
-1.2588604979754e-02
-1.4618057137341e-02
-6.2492250176547e-03
-6.9164729854698e-03
-2.2930875948068e-17
 1.9441100205381e-17
 5.4311752577946e-18
-2.6729507068596e-02
-2.5658587545922e-02
-1.3206277317377e-02
-1.1960809639021e-02
-1.2245080503312e-02
-1.2957843346801e-02
-6.0256342082035e-03
-6.0076476441750e-03
 3.9099040845259e-18
-4.2554935270056e-18
 1.1370570283942e-17
-2.5952365365877e-02
-2.2116088292992e-02
-1.2767994067178e-02
-1.0109202686294e-02
-1.1823412037458e-02
-1.1061520380874e-02
-5.8108506056307e-03
-5.0401050871116e-03
 5.2675284923850e-17
 1.4904391739887e-17
 2.4416571737552e-17
-2.5135078287236e-02
-1.8313942518237e-02
-1.2372913562450e-02
-8.1832061818474e-03
-1.1445555472761e-02
-9.1050950310609e-03
-5.6382146554270e-03
-4.0615682871792e-03
-5.4205026426592e-17
 1.4462240541420e-17
 3.1693431787414e-17
-2.4432072322330e-02
-1.4407691982051e-02
-1.2059192947857e-02
-6.2165232450013e-03
-1.1150063299596e-02
-7.1399654763007e-03
-5.5118013631894e-03
-3.0786861428318e-03
 3.4205731508970e-17
-2.6396934768233e-17
-8.2789000264635e-18
-2.3892410516606e-02
-1.0424448079584e-02
-1.1832900847033e-02
-4.2059146548041e-03
-1.0939806239492e-02
-5.1617117776275e-03
-5.4276679044953e-03
-2.0837759569758e-03
 5.7389023275321e-17
-1.0161854268210e-17
-5.1698655935666e-17
-2.3523082826853e-02
-6.3442370472258e-03
-1.1691744365181e-02
-2.1382214380381e-03
-1.0809932329806e-02
-3.1505591810044e-03
-5.3829410856956e-03
-1.0670491377205e-03
-1.1099519740820e-17
-8.7727202347128e-18
 9.7372790033986e-18
-2.3320557452852e-02
-2.1375793132625e-03
-1.1633357888808e-02
 6.8550008336388e-08
-1.0758516751118e-02
-1.0869408725240e-03
-5.3777769297252e-03
-1.9935930358983e-05
 1.6538318295140e-17
-1.8449224624146e-17
-8.7722967182392e-18
-2.3279863437136e-02
 2.2225106505696e-03
-1.1655350746113e-02
 2.2202576653498e-03
-1.0787734521379e-02
 1.0455622302063e-03
-5.4142452071186e-03
 1.0648234437447e-03
-1.3204396614747e-17
 1.0443916239646e-18
 2.4593178107055e-17
-2.3391957735770e-02
 6.7548659961796e-03
-1.1751769407218e-02
 4.5278661362289e-03
-1.0900872552860e-02
 3.2596792826629e-03
-5.4940530636394e-03
 2.1922981360163e-03
 9.1360973690849e-18
-1.3857459017080e-17
 5.4210108624275e-17
-2.3636713243170e-02
 1.1456712291705e-02
-1.1908811521878e-02
 6.9125012167390e-03
-1.1097845221592e-02
 5.5591983502274e-03
-5.6159267156613e-03
 3.3607933769648e-03
-4.5369625753782e-17
-8.0129316810257e-18
 9.5350498872417e-18
-2.3977177969643e-02
 1.6273424500549e-02
-1.2102650538658e-02
 9.3280419503188e-03
-1.1370986599310e-02
 7.9241151650460e-03
-5.7735053017165e-03
 4.5516039923559e-03
-5.1600400113785e-17
 1.7198156961051e-17
 6.1494591970662e-19
-2.4361234584244e-02
 2.1049674517244e-02
-1.2303065000137e-02
 1.1664492335953e-02
-1.1703409002173e-02
 1.0284434691294e-02
-5.9552492424206e-03
 5.7132607012011e-03
-1.5067022065760e-17
 4.4316763800345e-18
-1.4568966692774e-19
-2.4736460328981e-02
 2.5473138841979e-02
-1.2485485959442e-02
 1.3720937145521e-02
-1.2072704185982e-02
 1.2487759662055e-02
-6.1480193073695e-03
 6.7451148804274e-03
 4.0488174878756e-18
-2.2039797287557e-17
 3.8121564824127e-17
-2.5077652220141e-02
 2.9039533622336e-02
-1.2647382520131e-02
 1.5198029312927e-02
-1.2460743960652e-02
 1.4276784114957e-02
-6.3437352408542e-03
 7.4913625587723e-03
-2.0367754249677e-17
 2.6933953656792e-17
-4.8057261295420e-17
-2.5412456032126e-02
 3.1076368114981e-02
-1.2812191521370e-02
 1.5728135665139e-02
-1.2864251815351e-02
 1.5300909350196e-02
-6.5423068638548e-03
 7.7584022032484e-03
 1.0686167662560e-17
 2.1285937964501e-17
-1.5427858101290e-17
-2.5831505809509e-02
 3.0843406708482e-02
-1.2980459813395e-02
 1.4942479483096e-02
-1.3300691152928e-02
 1.5177398162738e-02
-6.7303228627109e-03
 7.3572753153117e-03
-2.2571733978433e-17
 2.7611580014596e-17
-2.4835853046443e-17
-2.6659936537354e-02
 2.7709598867965e-02
-1.2964624306327e-02
 1.2574406107618e-02
-1.3902832936811e-02
 1.3598746860789e-02
-6.8183612002573e-03
 6.1659324729817e-03
-6.5509104624174e-17
-2.0416882160618e-17
-1.6180023358452e-17
-3.1602768880789e-02
 2.1608624656541e-02
-1.7671821343699e-02
 9.0022592974215e-03
-1.6545495293329e-02
 1.0578794037215e-02
-9.3511082497617e-03
 4.4135141899817e-03
-3.2232991774815e-17
-8.2246899178393e-18
-1.6287596542753e-17
-6.4615383865132e-02
 1.3727720164594e-02
-4.9860114128267e-02
 4.6000579101095e-03
-3.2623898079065e-02
 6.7676913581387e-03
-2.4494355195607e-02
 2.2870663265637e-03
-7.9417809134563e-18
-1.7482760031329e-17
 8.1315162936413e-20
-7.9647615184763e-02
 3.5384960716729e-03
-3.8206953122318e-02
 1.7802069408521e-03
-8.9555099447303e-17
-1.5910666881225e-17
-7.1774183818540e-17
-3.2077881317738e-04
-5.6152999633796e-05
-4.6158100074822e-04
-1.0168903607077e-04
-1.9057539949730e-04
-3.4209195628021e-05
-2.7298319075531e-04
-6.2167551424630e-05
 2.6088614775433e-18
-7.8943470684101e-19
 2.4123498337803e-18
-2.0105612251444e-03
-9.5869814872207e-04
-1.5457729925499e-03
-9.8671973257236e-04
-1.1214634542078e-03
-5.7518300366888e-04
-8.4316865764378e-04
-5.8992258159851e-04
 5.8546917314217e-18
 6.5018249031240e-18
-7.0473141211558e-19
-4.4433144024656e-03
-3.9957008821142e-03
-2.8711121462230e-03
-3.1750708466856e-03
-2.3194331197978e-03
-2.3395220818012e-03
-1.4729312347064e-03
-1.8431235956535e-03
 9.7984771338377e-18
 5.6649563512368e-18
-5.2244992186645e-18
-7.4813527605857e-03
-9.6484768787877e-03
-4.6037541689099e-03
-6.5944805334972e-03
-3.7759936661406e-03
-5.4998699576052e-03
-2.3124614281580e-03
-3.7235875209580e-03
-2.0105174036028e-17
 2.2673377932103e-17
-1.1553529400549e-18
-1.1541423427043e-02
-1.7106047669278e-02
-6.8956699437657e-03
-1.0549702797757e-02
-5.7734640532230e-03
-9.5206828908894e-03
-3.4361216769701e-03
-5.8177792825971e-03
 3.1550283219328e-17
-3.0567725000513e-17
 6.3934046858755e-18
-1.6230820908279e-02
-2.4613972051646e-02
-9.2788474884562e-03
-1.4002851193824e-02
-8.0052516474378e-03
-1.3412039738013e-02
-4.5324006767613e-03
-7.5530983599181e-03
 1.3349239248728e-17
-2.5702367751484e-17
 3.6828992546617e-18
-2.0283058718076e-02
-3.0197359970418e-02
-1.1017068487229e-02
-1.6046720294636e-02
-9.7551239815807e-03
-1.6112298616188e-02
-5.2265940132354e-03
-8.4642052256978e-03
-2.8162151430311e-17
-5.5551808812726e-17
-1.8566962203814e-18
-2.2697691578644e-02
-3.2624865461279e-02
-1.1773501862248e-02
-1.6405349371699e-02
-1.0606496497172e-02
-1.7043355814287e-02
-5.4268868227352e-03
-8.4725745952126e-03
 4.7305096038258e-17
 1.7475983767751e-17
 1.9632529651460e-17
-2.3405878028096e-02
-3.2003310984683e-02
-1.1747219960778e-02
-1.5457983873240e-02
-1.0671180646600e-02
-1.6398450417060e-02
-5.3016602374853e-03
-7.8455748386048e-03
 1.4121733296624e-17
 3.7133924407629e-17
-2.5312732595747e-17
-2.3010964045939e-02
-2.9350883538349e-02
-1.1348210456491e-02
-1.3804884903763e-02
-1.0327331228041e-02
-1.4809265778127e-02
-5.0665861383372e-03
-6.9197257794436e-03
 7.3705418938280e-17
-2.2686930459259e-17
-2.6759464869658e-17
-2.2193975184265e-02
-2.5743621561757e-02
-1.0887405236257e-02
-1.1894727638719e-02
-9.8979446419278e-03
-1.2851750198749e-02
-4.8502293955082e-03
-5.9153073822333e-03
-5.5768649247223e-17
 9.7679839477366e-18
 2.9966331607963e-17
-2.1377128533795e-02
-2.1851764122189e-02
-1.0501902753110e-02
-9.9411315465261e-03
-9.5374483065029e-03
-1.0839269439330e-02
-4.6914210560889e-03
-4.9214472759207e-03
 4.0500033340017e-17
-3.4894369295088e-17
 5.3168258099152e-18
-2.0720729095567e-02
-1.7944101890197e-02
-1.0218203119416e-02
-8.0011109266991e-03
-9.2783763085933e-03
-8.8707916896904e-03
-4.5852749974884e-03
-3.9516375773001e-03
 4.6161601559465e-17
 1.2671612890924e-17
-3.2611191985764e-17
-2.0244829816882e-02
-1.4063620255293e-02
-1.0023339662382e-02
-6.0655260005831e-03
-9.1054417516858e-03
-6.9418285941158e-03
-4.5178693891117e-03
-2.9926145646186e-03
-2.8110482420529e-17
 5.7682943708018e-18
 1.4101404505890e-17
-1.9927543125790e-02
-1.0172882833328e-02
-9.9021854607213e-03
-4.1106493284815e-03
-8.9990012085224e-03
-5.0203155533877e-03
-4.4801851975063e-03
-2.0287895340889e-03
-3.4825759626361e-17
 5.1101497707852e-18
-1.4294104501390e-17
-1.9751131067501e-02
-6.2252387786650e-03
-9.8490387342824e-03
-2.1165609924836e-03
-8.9498878055565e-03
-3.0783450104326e-03
-4.4704113420959e-03
-1.0493573212376e-03
 5.1626658135150e-17
 1.5383812388033e-17
-3.2737823411379e-18
-1.9714367844482e-02
-2.1848103875790e-03
-9.8676940489080e-03
-6.8936005391151e-05
-8.9605357328750e-03
-1.0979327168861e-03
-4.4923773938326e-03
-4.7596595431187e-05
-3.0760848512487e-17
 1.7448878713439e-19
-1.0972464798732e-17
-1.9830070566373e-02
 1.9752823845458e-03
-9.9677636864559e-03
 2.0437179392090e-03
-9.0417644521423e-03
 9.3281738828232e-04
-4.5533175438610e-03
 9.8159178442536e-04
 1.6249480060127e-17
-1.2527617289891e-18
 7.7935501476868e-18
-2.0117256240136e-02
 6.2766250541007e-03
-1.0159783401246e-02
 4.2302089676838e-03
-9.2085410612697e-03
 3.0235646709564e-03
-4.6615303308162e-03
 2.0426197269430e-03
 7.4784538913082e-18
-1.6850873452677e-17
 1.5588794361268e-17
-2.0591227980819e-02
 1.0728620091069e-02
-1.0449603377715e-02
 6.4891458439007e-03
-9.4751680133385e-03
 5.1799512168409e-03
-4.8236789158445e-03
 3.1362546538940e-03
-1.5827657652394e-17
 9.0513940743595e-18
-2.6528224875057e-17
-2.1253359952933e-02
 1.5301623263369e-02
-1.0832978233541e-02
 8.7896642523191e-03
-9.8499483761287e-03
 7.3915865100436e-03
-5.0417807861951e-03
 4.2505075146408e-03
 8.2043611271052e-18
-3.0205194899088e-18
-2.1816180589482e-17
-2.2084011703863e-02
 1.9874930904209e-02
-1.1293045524357e-02
 1.1039603725230e-02
-1.0330477996156e-02
 9.6064785240404e-03
-5.3109036734433e-03
 5.3443620183646e-03
-1.5490538539387e-17
-2.9261600195847e-17
-2.0476174466925e-17
-2.3044188387750e-02
 2.4167048412592e-02
-1.1804461799100e-02
 1.3049457425986e-02
-1.0902146183227e-02
 1.1694388364561e-02
-5.6194705283019e-03
 6.3279283961464e-03
 4.0811741464607e-17
-2.4514827559434e-17
 1.6296913905173e-18
-2.4089622015936e-02
 2.7679830585169e-02
-1.2344455864385e-02
 1.4514653251943e-02
-1.1542156946646e-02
 1.3414487367109e-02
-5.9531844933822e-03
 7.0507975507379e-03
-2.1418075104272e-17
 1.4323327138070e-17
-3.5151867311054e-17
-2.5190652450441e-02
 2.9711591167246e-02
-1.2898924660306e-02
 1.5046599593024e-02
-1.2227222745928e-02
 1.4417457618753e-02
-6.2982833623995e-03
 7.3163969498715e-03
-4.7319495598362e-17
 1.6584905107239e-18
-1.8490729238561e-17
-2.6348970784615e-02
 2.9484615333295e-02
-1.3423518946246e-02
 1.4263547868907e-02
-1.2942274732758e-02
 1.4310914397273e-02
-6.6248428451523e-03
 6.9312141386328e-03
-2.8993937784515e-17
-6.1243870218275e-17
-7.6487075137063e-19
-2.7805161646688e-02
 2.6389138711722e-02
-1.3765936694487e-02
 1.1934621764947e-02
-1.3793828508359e-02
 1.2793703097209e-02
-6.8725779997481e-03
 5.7870212993167e-03
 4.6093415407211e-17
-5.2414398776096e-18
-1.4349161642961e-17
-3.3398609509025e-02
 2.0523106376100e-02
-1.9156591210881e-02
 8.5751514024146e-03
-1.6741989934811e-02
 9.9489981043958e-03
-9.7327232590825e-03
 4.1711406882836e-03
 3.9885087420311e-17
-2.3022355506372e-18
 2.2539546726437e-17
-6.4659937625581e-02
 1.3241055931000e-02
-4.7500146679438e-02
 4.5073781222804e-03
-3.1911214766364e-02
 6.4778301181771e-03
-2.2946533598571e-02
 2.2232586674580e-03
 8.8199846731696e-17
-3.1326666521253e-17
-2.3012191111005e-17
-7.2534315211045e-02
 3.5441556261704e-03
-3.4286655379187e-02
 1.7598178717204e-03
-4.6620693416877e-18
-6.1962154157547e-17
-1.1058862159352e-17
-4.1882743190519e-04
-8.4589282050296e-05
-5.8555952429185e-04
-1.5555259264843e-04
-2.2928528443611e-04
-5.0651435884674e-05
-3.1792785514328e-04
-9.3519740877790e-05
-3.6049722235143e-18
 3.2051726724103e-18
-3.3474742075490e-18
-2.2711142576715e-03
-1.3825928639671e-03
-1.6486635151223e-03
-1.3948834858599e-03
-1.1507729733893e-03
-8.0824979211758e-04
-8.1360292475674e-04
-8.1004165161791e-04
-3.7472737586530e-18
 9.7510432887915e-18
-1.7787691892340e-17
-4.4308206833487e-03
-5.4142243467819e-03
-2.7767543339277e-03
-4.1912104739668e-03
-2.1034472773320e-03
-3.0763156854312e-03
-1.3071693975607e-03
-2.3593885987880e-03
 2.9964637542068e-17
 1.3627066055427e-17
-5.2516042729767e-18
-7.1830208616738e-03
-1.2322808556777e-02
-4.4224216776145e-03
-8.2323168904050e-03
-3.3905942715462e-03
-6.8282374912416e-03
-2.1035256513231e-03
-4.5252337442447e-03
-6.7762635780344e-21
-7.1421818112483e-18
 1.2431055533904e-17
-1.1092006930026e-02
-2.0822676276956e-02
-6.6078447745517e-03
-1.2588268705585e-02
-5.2905047118728e-03
-1.1316766696893e-02
-3.1494267301340e-03
-6.7893807247867e-03
-3.6144589925235e-17
 9.9340024053984e-18
-7.2641545556529e-18
-1.5269416324347e-02
-2.8719412714174e-02
-8.5916268934265e-03
-1.6005337601960e-02
-7.2063458939304e-03
-1.5337921084689e-02
-4.0119400435028e-03
-8.4684116951070e-03
 9.5003215364042e-18
 5.1838416371963e-19
 2.1514636860259e-17
-1.8249004196147e-02
-3.3756943233215e-02
-9.6844936418539e-03
-1.7554724141501e-02
-8.3984932736385e-03
-1.7695718876571e-02
-4.3914295832614e-03
-9.1035289094767e-03
-3.1184364986114e-17
-4.1643527818810e-17
-1.0944512711473e-17
-1.9401284440646e-02
-3.4959726340262e-02
-9.8297826832880e-03
-1.7230831108307e-02
-8.6850975818784e-03
-1.7983596219898e-02
-4.3418639458910e-03
-8.7734608757728e-03
 4.2927629766848e-18
-1.5415999640028e-17
 2.2571733978433e-17
-1.9156378776340e-02
-3.3056364026530e-02
-9.4463301767573e-03
-1.5719158006441e-02
-8.3975738457269e-03
-1.6727410515198e-02
-4.1079945450519e-03
-7.8930837285878e-03
 4.6281880237975e-17
-2.1169047417779e-17
 8.6600648527280e-18
-1.8334079597107e-02
-2.9504754529025e-02
-8.9620186118040e-03
-1.3738519548617e-02
-7.9594270218095e-03
-1.4753813621728e-02
-3.8827603321270e-03
-6.8383871775577e-03
 2.8697476252976e-17
-3.9675023249391e-18
 2.0301685679791e-17
-1.7516150719160e-02
-2.5447336937503e-02
-8.5816073085332e-03
-1.1696595546233e-02
-7.6053861221936e-03
-1.2636415310417e-02
-3.7326123557353e-03
-5.7960949744551e-03
-4.9751327189929e-17
 2.5849751484307e-17
 1.8534774951819e-17
-1.6913591431746e-02
-2.1416225444903e-02
-8.3337593185144e-03
-9.7225687002691e-03
-7.3823918936000e-03
-1.0601028265770e-02
-3.6485747539903e-03
-4.8096814135778e-03
-4.2735353287821e-17
 1.7568310359001e-17
-4.8119941733517e-18
-1.6522880408791e-02
-1.7526317098230e-02
-8.1831640869825e-03
-7.8104934866019e-03
-7.2568880352080e-03
-8.6675350083283e-03
-3.6044161786801e-03
-3.8625382370299e-03
 7.3657985093234e-18
 3.9725845226227e-19
-7.3247174113816e-19
-1.6283040146465e-02
-1.3725030035415e-02
-8.0945637520340e-03
-5.9202176849951e-03
-7.1890586465813e-03
-6.7884691724383e-03
-3.5819001773021e-03
-2.9285696871639e-03
-1.4003572200482e-17
 5.8707853574196e-18
-1.3375497270093e-17
-1.6147899825464e-02
-9.9357174149848e-03
-8.0506656350197e-03
-4.0189742101759e-03
-7.1569542768159e-03
-4.9179011182687e-03
-3.5742609097102e-03
-1.9901215715237e-03
 8.9870195703681e-19
-1.1248597539537e-17
 5.5230783325717e-18
-1.6101825310894e-02
-6.1060496719225e-03
-8.0507726060277e-03
-2.0887221289385e-03
-7.1564821307675e-03
-3.0295867160226e-03
-3.5830599779292e-03
-1.0391419523437e-03
-1.1744111813681e-17
-1.6038145339787e-17
-7.0867011532031e-18
-1.6154940070892e-02
-2.2091342699735e-03
-8.1055706640938e-03
-1.2095276854751e-04
-7.1960126687145e-03
-1.1131332426513e-03
-3.6150342817578e-03
-7.3130276462052e-05
-8.7612852899249e-18
 1.5908972815330e-17
-2.1946200146885e-17
-1.6334720503112e-02
 1.7690988783130e-03
-8.2326055583917e-03
 1.8897924031691e-03
-7.2918518100948e-03
 8.3459900269078e-04
-3.6800655869431e-03
 9.0881538009668e-04
 4.2588816587946e-18
-4.3198680309969e-20
-4.9530251590695e-18
-1.6677878996495e-02
 5.8398404879654e-03
-8.4522012814172e-03
 3.9486791549379e-03
-7.4648034488689e-03
 2.8156628856739e-03
-3.7895575058400e-03
 1.9078917322268e-03
 1.2920640577417e-17
-3.3644148664941e-18
-1.0898772932321e-17
-1.7221532885093e-02
 1.0010076449602e-02
-8.7824853677298e-03
 6.0559917747369e-03
-7.7364360720296e-03
 4.8315309707616e-03
-3.9542964970654e-03
 2.9239979978097e-03
 7.3132824665936e-18
 2.2920711552701e-18
 3.5793918285072e-17
-1.7992496952713e-02
 1.4261949638644e-02
-9.2330845200510e-03
 8.1908880336527e-03
-8.1240491593420e-03
 6.8744272239893e-03
-4.1814014815600e-03
 3.9485190750082e-03
 2.3081647812680e-17
-3.2526065174565e-19
-3.1823027828344e-18
-1.8996198842816e-02
 1.8505180307107e-02
-9.7992605979154e-03
 1.0280599977058e-02
-8.6348470279560e-03
 8.9052942531786e-03
-4.4710474744409e-03
 4.9495642149591e-03
 1.5017894154819e-17
-7.2895655440705e-18
-5.0356108714268e-18
-2.0210340940868e-02
 2.2504389004163e-02
-1.0460530292244e-02
 1.2160395479874e-02
-9.2617823447867e-03
 1.0817998963536e-02
-4.8148695656067e-03
 5.8514702622308e-03
 8.0434248671268e-18
 2.5231417432811e-17
 8.8345536398624e-19
-2.1589225245209e-02
 2.5808603005418e-02
-1.1186780276116e-02
 1.3546230299887e-02
-9.9842011137454e-03
 1.2401806572444e-02
-5.1978845731711e-03
 6.5190025506929e-03
-4.3801767768414e-17
-3.6083603553033e-18
 5.0567866951082e-18
-2.3077800524339e-02
 2.7743929439690e-02
-1.1944829790758e-02
 1.4056967770045e-02
-1.0773449941461e-02
 1.3332625777582e-02
-5.6014781411342e-03
 6.7657447028697e-03
 3.7303330997079e-17
 3.5709214990347e-17
-3.0182325009513e-17
-2.4632728376817e-02
 2.7536834998816e-02
-1.2669024171850e-02
 1.3310154534960e-02
-1.1603403315142e-02
 1.3230691183609e-02
-5.9907069299072e-03
 6.4017783362402e-03
 1.8803284396098e-17
-2.3472977034311e-17
 1.2922758159785e-17
-2.6471891708967e-02
 2.4595897586821e-02
-1.3292556256909e-02
 1.1101550988407e-02
-1.2585963630336e-02
 1.1806599571731e-02
-6.3603328332631e-03
 5.3319491272035e-03
-2.0547113476258e-17
 6.6153273180561e-18
 2.6440556965017e-17
-3.2633588882720e-02
 1.9143173231707e-02
-1.9289395044353e-02
 8.0451062009317e-03
-1.5793282133657e-02
 9.1988924598517e-03
-9.4970388813183e-03
 3.8837900233988e-03
-4.3019109325151e-17
 3.3176586478056e-17
 1.8939656700606e-17
-6.1993698276867e-02
 1.2577388412651e-02
-4.3813763794946e-02
 4.3356868331443e-03
-2.9971596811098e-02
 6.1021333786795e-03
-2.0817469184129e-02
 2.1176302060200e-03
-5.4372738950148e-17
 1.3776143854144e-17
-4.1768888695004e-17
-6.4197595840776e-02
 3.4604825797504e-03
-2.9880854830001e-02
 1.6939312547901e-03
-5.9847959921200e-17
 8.7196959722147e-17
 6.6136332521616e-18
-4.5015225101058e-04
-1.2068443899660e-04
-6.0380403354499e-04
-2.2348245631942e-04
-2.2075318442605e-04
-7.0409746124600e-05
-2.9120386385773e-04
-1.3094275296055e-04
 6.6271857793176e-18
 4.2487172634276e-18
 2.0870891820346e-18
-2.0581945015699e-03
-1.8640778241218e-03
-1.3954368586966e-03
-1.8370753139179e-03
-9.0109780300773e-04
-1.0575282114735e-03
-5.8755833630975e-04
-1.0334172713796e-03
-1.2061749168901e-17
 8.9107866051152e-18
-2.8324781756184e-18
-3.5928388860174e-03
-6.8502803919380e-03
-2.2397474862807e-03
-5.1806471099472e-03
-1.4762985215366e-03
-3.7779799744644e-03
-9.3612424503686e-04
-2.8337143135566e-03
 3.0665980822395e-17
 2.8595832299305e-18
-8.8769052872251e-18
-6.0140072113576e-03
-1.4839115394262e-02
-3.8057187077989e-03
-9.7432190115327e-03
-2.6087465165610e-03
-8.0201086716358e-03
-1.6977331047692e-03
-5.2365842086788e-03
 5.5992265945298e-17
 1.7015197844444e-17
 1.0147454708106e-17
-9.6788467752717e-03
-2.4190865443483e-02
-5.7920700397596e-03
-1.4399936388235e-02
-4.3616196164287e-03
-1.2893449166737e-02
-2.6170991572361e-03
-7.6301971957871e-03
-3.1319890257675e-17
-6.6068569885835e-18
 3.4694469519536e-18
-1.3161893683329e-02
-3.2260069713879e-02
-7.2930583923563e-03
-1.7666442704044e-02
-5.8993489691765e-03
-1.6958101487139e-02
-3.2285349070618e-03
-9.2111534470245e-03
 2.0247475571167e-17
 2.8927869214629e-17
 3.8489177123235e-18
-1.5066846811735e-02
-3.6554077655349e-02
-7.8083532239718e-03
-1.8657318185944e-02
-6.5867520726073e-03
-1.8912235461310e-02
-3.3550140606877e-03
-9.5614294208710e-03
 3.4797807539101e-17
-1.0347354483659e-17
 3.6600293650858e-18
-1.5242830892282e-02
-3.6513072028427e-02
-7.5520603062912e-03
-1.7700112073477e-02
-6.4795327184513e-03
-1.8590087483884e-02
-3.1653434447207e-03
-8.9352108331280e-03
-1.1214716221647e-17
 2.9131157121970e-17
 3.1712913545201e-18
-1.4490614332509e-02
-3.3515754165537e-02
-7.0493402296725e-03
-1.5750783527039e-02
-6.0444518858134e-03
-1.6840312810135e-02
-2.9227889240531e-03
-7.8686098678471e-03
 5.4372738950148e-17
 5.5971937154564e-18
-6.3798521587194e-18
-1.3638675210156e-02
-2.9334080751800e-02
-6.6470768268745e-03
-1.3572211853010e-02
-5.6635965413108e-03
-1.4615357552274e-02
-2.7638121259859e-03
-6.7436378775607e-03
-2.4716421400880e-17
 2.2365057939302e-17
 1.2266731142137e-17
-1.3054379045610e-02
-2.5052795394699e-02
-6.4206964014455e-03
-1.1489211464685e-02
-5.4537623216646e-03
-1.2435000582150e-02
-2.6944386534389e-03
-5.6992245965173e-03
 3.7806468567748e-17
 3.9590319954666e-18
 8.2619593675185e-18
-1.2744305575915e-02
-2.1020482311790e-02
-6.3175704977545e-03
-9.5422461243970e-03
-5.3735264440391e-03
-1.0426610244336e-02
-2.6755916701617e-03
-4.7350660589807e-03
-1.0312626132821e-17
 7.7397635555362e-18
-1.3596784627563e-17
-1.2601877231319e-02
-1.7208721643386e-02
-6.2754367021436e-03
-7.6740289878856e-03
-5.3553956042265e-03
-8.5424624807671e-03
-2.6755952810600e-03
-3.8118185787077e-03
-4.3154211080238e-17
 3.7761575821544e-17
 1.1856767195666e-17
-1.2541183530319e-02
-1.3496408487265e-02
-6.2598791182840e-03
-5.8262284219310e-03
-5.3584869143108e-03
-6.7073578426213e-03
-2.6805056390025e-03
-2.8971804231759e-03
-4.5333203337050e-18
 8.6710762810423e-18
 7.1320174158812e-18
-1.2524169287504e-02
-9.7907249431177e-03
-6.2617077445297e-03
-3.9660750726469e-03
-5.3696189911605e-03
-4.8724867707410e-03
-2.6886009356186e-03
-1.9754593099979e-03
-2.2466701892973e-17
 1.7170204873792e-17
 1.8948127030079e-18
-1.2549191199833e-02
-6.0478495763050e-03
-6.2870938384520e-03
-2.0824772803678e-03
-5.3922812371425e-03
-3.0188761172436e-03
-2.7044756079100e-03
-1.0430797676762e-03
 2.0129737991498e-18
-6.4675200687602e-18
 9.7260558168475e-19
-1.2636986685356e-02
-2.2572197122202e-03
-6.3509522590248e-03
-1.7542289340611e-04
-5.4388427095375e-03
-1.1455920421171e-03
-2.7360492003048e-03
-1.0217589042938e-04
-6.1096486485453e-18
-4.9805537298553e-19
 1.0354766021947e-17
-1.2822094893984e-02
 1.5780110561412e-03
-6.4736713929965e-03
 1.7523295737973e-03
-5.5270790077628e-03
 7.4143391027182e-04
-2.7934742314812e-03
 8.4383182957026e-04
-2.8833001524536e-17
-1.2459854654111e-18
-1.5611240734370e-17
-1.3147535402073e-02
 5.4534505297230e-03
-6.6788043889092e-03
 3.6990415299556e-03
-5.6785037081681e-03
 2.6359523720123e-03
-2.8884395266342e-03
 1.7922393083953e-03
 2.3168045173300e-17
-7.9011233319881e-18
-8.2166431048403e-18
-1.3658846013991e-02
 9.3651927233029e-03
-6.9895012718715e-03
 5.6615299234721e-03
-5.9161495711919e-03
 4.5327114565834e-03
-3.0327441640594e-03
 2.7402366593652e-03
 2.7359164196314e-19
 8.8599646282800e-18
 1.7366716517555e-17
-1.4394871539553e-02
 1.3295181904990e-02
-7.4226513876465e-03
 7.6226001037867e-03
-6.2604300314959e-03
 6.4214284930437e-03
-3.2356241182612e-03
 3.6795033455732e-03
 1.5048387340920e-17
 1.3959102970751e-17
 1.8477176711405e-17
-1.5375853122185e-02
 1.7171652445814e-02
-7.9819285958238e-03
 9.5241089351532e-03
-6.7233358836347e-03
 8.2691225493041e-03
-3.5003442651789e-03
 4.5838487334660e-03
-1.3439024741137e-17
 1.5570159636428e-17
-1.9168355596365e-18
-1.6593644754495e-02
 2.0801611434260e-02
-8.6536419602514e-03
 1.1227742265852e-02
-7.3034017209395e-03
 9.9883468983524e-03
-3.8218792404514e-03
 5.3901974254433e-03
 5.6005818472454e-18
-1.5039917011447e-17
 2.1765358612647e-17
-1.8011070982135e-02
 2.3795384836530e-02
-9.4096505896406e-03
 1.2482070999845e-02
-7.9850701635635e-03
 1.1399508208608e-02
-4.1878310168357e-03
 5.9812170918079e-03
 3.8814437774981e-17
-1.5864927102073e-17
-1.2586062563252e-17
-1.9572475509557e-02
 2.5541217969572e-02
-1.0213464815901e-02
 1.2933729356064e-02
-8.7436844529805e-03
 1.2214718909796e-02
-4.5811390405124e-03
 6.1883119598445e-03
-5.4797949489670e-17
-1.2630955309456e-17
 2.3282394621179e-17
-2.1228095643076e-02
 2.5309192044493e-02
-1.0999471095126e-02
 1.2216508719838e-02
-9.5583428468302e-03
 1.2084228235652e-02
-4.9714690662128e-03
 5.8340102067742e-03
 6.0977901872837e-18
 1.2954521895307e-17
 2.3679653073441e-17
-2.3234820333027e-02
 2.2546070273563e-02
-1.1837054485650e-02
 1.0159301997355e-02
-1.0576017776415e-02
 1.0744632073988e-02
-5.4334193836976e-03
 4.8428989062383e-03
-2.5859915879674e-17
-8.8976575944328e-18
 6.9194121461204e-18
-2.9865380943149e-02
 1.7583514496503e-02
-1.8317387962647e-02
 7.4433605109689e-03
-1.3989674152704e-02
 8.3890408396119e-03
-8.7750325082325e-03
 3.5690603014160e-03
 3.5209465551467e-17
-3.8641643053741e-18
 1.2271813339820e-17
-5.7156768436030e-02
 1.1763333408872e-02
-3.9143565734213e-02
 4.0887875231590e-03
-2.7091910080458e-02
 5.6622503084371e-03
-1.8287506463936e-02
 1.9773163450907e-03
-3.1143707404646e-17
-8.5923022169476e-18
-1.8160386389132e-18
-5.5151492467733e-02
 3.2909809579866e-03
-2.5249766864881e-02
 1.5900922548742e-03
 9.0747721837037e-17
-1.1519648082659e-17
-1.7076184216647e-17
-3.6748198075009e-04
-1.6098864613318e-04
-4.5754133249720e-04
-2.9839597021475e-04
-1.4595934463069e-04
-9.0965291739575e-05
-1.7182444684144e-04
-1.6931168582496e-04
-1.3281476612947e-18
 2.7376104855259e-18
-3.9302328752599e-18
-1.2848324367088e-03
-2.3408132561217e-03
-7.7501197894780e-04
-2.2544757930722e-03
-3.7528691748090e-04
-1.2861682118381e-03
-1.9411143877784e-04
-1.2277537800388e-03
-1.8570350335603e-17
-7.0964420320965e-18
 1.5619287547369e-18
-2.0391195438107e-03
-8.1283934498296e-03
-1.3620139946036e-03
-6.0379840768263e-03
-5.5510037482343e-04
-4.3572390498927e-03
-4.3603852328777e-04
-3.2176327540698e-03
-5.3871295445374e-19
-9.6900569165892e-19
 1.2075301696057e-17
-4.1730269710141e-03
-1.6995563575227e-02
-2.8470946926602e-03
-1.1035014319383e-02
-1.5603978784657e-03
-8.9873836919288e-03
-1.1521934891667e-03
-5.8195902555558e-03
-8.0347851310648e-17
 2.0874279952135e-17
-1.3957408904856e-17
-7.4808890977531e-03
-2.7067373911210e-02
-4.5477770555804e-03
-1.5934629559384e-02
-3.1050486672939e-03
-1.4194122055160e-02
-1.9064903415638e-03
-8.3249694691307e-03
 1.3728710009098e-17
-2.9585166781698e-17
 6.9117888495951e-19
-1.0190934696502e-02
-3.5201330915789e-02
-5.5635523610956e-03
-1.9007222909075e-02
-4.2544789781260e-03
-1.8277857766279e-02
-2.2838250060682e-03
-9.8066209754641e-03
-1.5344848872459e-17
 3.0998017737718e-17
 8.1382925572193e-18
-1.1175750902104e-02
-3.8719825020972e-02
-5.6374291649840e-03
-1.9461108095378e-02
-4.5364316130616e-03
-1.9854562272556e-02
-2.2305639184825e-03
-9.9026811720151e-03
-6.3540176538281e-17
-3.2573499019611e-17
-6.2604205131565e-18
-1.0717015851535e-02
-3.7557200488250e-02
-5.1817395031797e-03
-1.7967344972888e-02
-4.1925895219848e-03
-1.9012640031237e-02
-1.9868937853680e-03
-9.0349566124868e-03
-3.3474742075490e-18
 1.1824579943670e-17
-5.6649563512368e-18
-9.8118792239434e-03
-3.3692383628491e-02
-4.7213539977666e-03
-1.5699463870462e-02
-3.7458493027884e-03
-1.6884188256453e-02
-1.7920884885889e-03
-7.8353442493384e-03
-4.6613917153299e-17
 5.1089639246590e-17
-1.3328910457994e-17
-9.1554803802314e-03
-2.9097903197797e-02
-4.4747890043395e-03
-1.3414362806806e-02
-3.4910736264422e-03
-1.4499048071788e-02
-1.7160851502034e-03
-6.6747397992728e-03
-3.1465579924603e-17
-1.9515639104739e-17
 8.5211514493783e-18
-8.8768334884470e-03
-2.4734428090274e-02
-4.4053732179668e-03
-1.1339870399105e-02
-3.4319457281811e-03
-1.2304599738855e-02
-1.7181019521679e-03
-5.6428082178837e-03
 1.9954402171417e-17
 2.1394781698223e-17
-1.1105448971451e-17
-8.8314291419156e-03
-2.0764145391933e-02
-4.4161771196847e-03
-9.4363452792550e-03
-3.4674402315318e-03
-1.0336931693767e-02
-1.7457408780359e-03
-4.7018107682106e-03
-2.6698478497456e-18
 3.0512667858942e-17
 3.5822717405279e-17
-8.8705835003910e-03
-1.7040290730771e-02
-4.4449923666448e-03
-7.6086688280412e-03
-3.5213127578331e-03
-8.4954864236046e-03
-1.7719816633530e-03
-3.7965278451377e-03
-8.9099395721680e-18
-2.1897072235944e-17
-2.4724891730353e-18
-8.9207939595450e-03
-1.3398637404368e-02
-4.4703730326179e-03
-5.7907229112217e-03
-3.5644750707888e-03
-6.6892065046715e-03
-1.7906185948267e-03
-2.8929655413510e-03
-2.0714190725104e-18
 4.2876807790013e-18
-1.9426700645277e-18
-8.9662323012032e-03
-9.7465223439244e-03
-4.4936290891731e-03
-3.9554046620225e-03
-3.5957938158902e-03
-4.8728031690732e-03
-1.8047884905705e-03
-1.9793676142683e-03
 4.6574106604778e-18
 7.5449459776677e-19
 2.2505665408547e-18
-9.0197915218351e-03
-6.0558878619101e-03
-4.5257973746042e-03
-2.1005206465219e-03
-3.6249068609493e-03
-3.0365139055881e-03
-1.8206615752305e-03
-1.0568652117122e-03
-6.3317830389627e-18
 1.5187300744270e-18
-1.7188416082158e-18
-9.1075019369349e-03
-2.3338759451015e-03
-4.5825169882505e-03
-2.3447613700966e-04
-3.6652074340964e-03
-1.1882337817588e-03
-1.8456798291950e-03
-1.3160247375055e-04
 1.8681735168167e-17
-4.9185085664689e-18
 9.1684963793174e-18
-9.2634671227323e-03
 1.4001665011882e-03
-4.6829405110778e-03
 1.6322876738997e-03
-3.7326669555000e-03
 6.5861147515678e-04
-1.8886177035000e-03
 7.8947127134654e-04
 1.4247094172817e-18
-9.7243617509530e-18
-6.2542795242889e-18
-9.5283740484593e-03
 5.1267283204819e-03
-4.8492175114854e-03
 3.4907699179740e-03
-3.8460837267991e-03
 2.4907600195374e-03
-1.9596888564593e-03
 1.7001511934112e-03
 4.0691462786097e-18
 1.0731907441712e-17
 1.2819631898457e-17
-9.9465652093968e-03
 8.8283582217663e-03
-5.1043204402275e-03
 5.3319143291901e-03
-4.0262529341248e-03
 4.2960961513825e-03
-2.0697344946825e-03
 2.5943455312394e-03
-8.7295215544028e-18
-1.0402411625230e-17
 1.3486670344420e-17
-1.0558925378094e-02
 1.2479156846043e-02
-5.4671820267989e-03
 7.1371091055923e-03
-4.2928597120024e-03
 6.0591274761810e-03
-2.2280752347150e-03
 3.4619634899311e-03
-2.5338143584165e-17
-7.2497549955496e-18
 3.0162843251726e-18
-1.1391882582791e-02
 1.6013347576383e-02
-5.9460618606333e-03
 8.8559406357831e-03
-4.6593307330838e-03
 7.7470885984461e-03
-2.4394681039261e-03
 4.2789248846251e-03
-2.2681848261576e-17
-1.6259644455494e-17
 1.2053278839429e-18
-1.2447165047988e-02
 1.9266987142142e-02
-6.5337441506346e-03
 1.0370930268998e-02
-5.1280034301939e-03
 9.2832708137287e-03
-2.7018542545338e-03
 4.9907041764552e-03
-6.1985871080070e-18
 1.3381426500723e-17
-1.6119036986249e-17
-1.3699855323315e-02
 2.1906068066809e-02
-7.2091134347496e-03
 1.1463815029941e-02
-5.6894812022250e-03
 1.0512795437192e-02
-3.0070491291756e-03
 5.4957343907720e-03
 5.0101998830092e-17
-1.6918636088457e-17
 6.8567317080236e-18
-1.5108343512311e-02
 2.3391625338250e-02
-7.9429017183677e-03
 1.1818532378953e-02
-6.3281285568166e-03
 1.1184100050444e-02
-3.3434223963553e-03
 5.6453627492328e-03
 5.3083554804427e-17
-6.2629616119983e-18
-5.1033735072072e-18
-1.6644157465492e-02
 2.3063614916034e-02
-8.6870604453262e-03
 1.1100336406500e-02
-7.0389363864649e-03
 1.0986628531916e-02
-3.6929401034183e-03
 5.2812841699730e-03
-1.5285556566151e-17
-2.2027938826295e-17
-1.1802557087041e-17
-1.8659340354618e-02
 2.0437587843835e-02
-9.6919744465442e-03
 9.1880309370040e-03
-8.0294455117098e-03
 9.6992715040427e-03
-4.2299365507841e-03
 4.3579362684767e-03
 6.0230818813359e-17
 4.1802346496421e-17
 4.2012834183813e-18
-2.5652525955912e-02
 1.5961360947033e-02
-1.6498476764040e-02
 6.8068619328088e-03
-1.1596369761307e-02
 7.5768192205838e-03
-7.6915029043132e-03
 3.2461715678664e-03
 2.2605615296323e-17
 1.7879171450644e-17
-1.2671612890924e-17
-5.0717602821149e-02
 1.0849235702369e-02
-3.3841942492153e-02
 3.7858672372515e-03
-2.3550613295235e-02
 5.1873846594557e-03
-1.5527353797642e-02
 1.8145894257788e-03
 1.1926223897340e-17
-3.5792224219178e-17
-1.2007539060277e-17
-4.5880372760975e-02
 3.0570625384128e-03
-2.0616804402941e-02
 1.4610624123286e-03
-1.0652286344670e-16
 2.3107058801097e-17
 2.7430314963883e-17
-1.5590892568082e-04
-1.9922668978745e-04
-1.4011832928862e-04
-3.6848763241304e-04
-9.7783405386132e-06
-1.0856329978193e-04
 2.5587848007602e-05
-2.0159362673422e-04
 4.5265440701270e-18
 3.2153370677773e-18
 4.2554935270056e-18
-6.3665943171448e-05
-2.7357613686001e-03
 9.0875942040824e-05
-2.5833160891291e-03
 3.1493567604235e-04
-1.4537768902756e-03
 2.7365991888217e-04
-1.3616803715512e-03
 4.9890240593278e-18
-2.0642192924587e-18
-4.7302554939416e-18
-9.3638260489526e-05
-9.0867387933413e-03
-3.2248050308170e-04
-6.6742215622808e-03
 4.5676873370759e-04
-4.7390688313527e-03
 9.2362354529585e-05
-3.4707374567298e-03
 3.2471855065941e-17
-2.2924099684490e-17
 4.9263436212310e-18
-1.9642399468524e-03
-1.8627532721895e-02
-1.6803945249193e-03
-1.2034060716019e-02
-4.1578009186249e-04
-9.6535919600580e-03
-5.4304179312026e-04
-6.2385005893630e-03
 3.3970256349634e-17
-4.5231559383380e-18
-8.8940577044070e-18
-4.7782884428729e-03
-2.9341720530234e-02
-3.0297873459555e-03
-1.7163170636179e-02
-1.6828529865780e-03
-1.5165508793953e-02
-1.1067201845130e-03
-8.8614342915383e-03
 4.6871415169264e-17
 5.4928392563547e-17
-1.1963493347020e-17
-6.7121168697315e-03
-3.7566073618978e-02
-3.6027410911274e-03
-2.0081895841809e-02
-2.4554946164237e-03
-1.9315781573320e-02
-1.2752084950902e-03
-1.0286373679230e-02
 3.6679914747900e-17
 4.1089568271306e-17
 4.9060148304969e-18
-6.9733578626461e-03
-4.0442634476819e-02
-3.3672139865638e-03
-2.0089811393245e-02
-2.4218096976476e-03
-2.0622252963923e-02
-1.0963685989625e-03
-1.0188131589935e-02
 5.3676477867505e-17
-2.8639878012562e-17
 1.5459198320338e-17
-6.1534171228388e-03
-3.8361681695265e-02
-2.8522680398875e-03
-1.8166382601045e-02
-1.9440190375377e-03
-1.9377841033837e-02
-8.4703425487831e-04
-9.1305480595292e-03
 4.4177850396995e-17
 2.5709144015062e-17
-3.0123879736152e-17
-5.3010851260398e-03
-3.3824282433090e-02
-2.5130016312627e-03
-1.5663926742001e-02
-1.5476210074468e-03
-1.6956369114506e-02
-7.2044001247207e-04
-7.8291690567518e-03
 3.7737011866074e-17
 9.0459730634970e-17
-1.7384504209447e-17
-4.9190946703508e-03
-2.8947343061550e-02
-2.4325972725285e-03
-1.3318370395204e-02
-1.4302035099618e-03
-1.4453641294838e-02
-7.2288809538712e-04
-6.6449094362007e-03
-1.2332799712023e-17
-2.8146904837260e-17
-1.2708882340604e-17
-4.9262529716936e-03
-2.4559916042413e-02
-2.4924130765123e-03
-1.1266852176647e-02
-1.5008210442460e-03
-1.2254685011153e-02
-7.8050818355813e-04
-5.6249939480235e-03
-7.5004767479368e-19
-1.8061071776067e-17
-6.8436026973411e-18
-5.0824152782152e-03
-2.0658795694706e-02
-2.5801629276629e-03
-9.4022993227441e-03
-1.6209232049746e-03
-1.0319296259988e-02
-8.3820013805180e-04
-4.7008447968011e-03
-3.1858603212129e-17
 1.3528386717072e-17
-1.9718291737370e-17
-5.2368468192601e-03
-1.7003285303703e-02
-2.6484666077959e-03
-7.6022062797776e-03
-1.7188299691000e-03
-8.5053265212212e-03
-8.7807952840890e-04
-3.8055635358152e-03
-5.4887734982079e-19
 2.5406753252893e-18
 7.6296492723931e-18
-5.3453851347900e-03
-1.3402860142046e-02
-2.6923664570722e-03
-5.7987062748168e-03
-1.7815685908218e-03
-6.7117867355870e-03
-9.0203961604018e-04
-2.9053075633101e-03
-1.0277474265510e-17
-1.6731441807114e-17
-4.6427993421376e-18
-5.4162124414408e-03
-9.7730104479972e-03
-2.7218837100618e-03
-3.9725629142566e-03
-1.8192733619742e-03
-4.8987344942049e-03
-9.1678488806934e-04
-1.9924986177173e-03
-1.0671979860694e-17
 1.6886660594699e-18
-9.2565878058318e-18
-5.4722059836649e-03
-6.1030310928896e-03
-2.7497743174818e-03
-2.1302606294427e-03
-1.8451882848893e-03
-3.0650750678771e-03
-9.2856235588812e-04
-1.0724013112196e-03
-6.7087127004909e-18
-5.7595064039740e-18
 1.5838457322471e-18
-5.5388479203291e-03
-2.4158798192655e-03
-2.7894649821754e-03
-2.8727569211639e-04
-1.8711475580489e-03
-1.2259729492752e-03
-9.4311835873029e-04
-1.5430439947650e-04
-3.7625203517036e-18
-3.9207037546033e-18
 4.7859479102236e-18
-5.6443231108805e-03
 1.2560519704436e-03
-2.8562833133239e-03
 1.5398327259817e-03
-1.9091456275362e-03
 5.9946713076453e-04
-9.6688027128167e-04
 7.5219946874938e-04
-7.6487075137063e-19
-9.8891096591940e-19
-1.0007694271810e-18
-5.8217193574102e-03
 4.8809076900014e-03
-2.9683504676532e-03
 3.3358029072730e-03
-1.9733263286241e-03
 2.3925814106285e-03
-1.0076679196089e-03
 1.6380776174074e-03
 1.3848565171134e-17
-2.8087612530953e-18
 2.4949355461375e-18
-6.1086056361273e-03
 8.4283371745624e-03
-3.1454934924029e-03
 5.0851672382350e-03
-2.0802693589701e-03
 4.1351736836499e-03
-1.0743498547328e-03
 2.4940134291782e-03
 6.1367537028574e-18
 9.0518175908331e-18
-1.4304268896757e-18
-6.5420126156095e-03
 1.1860929858869e-02
-3.4055234226136e-03
 6.7647050195632e-03
-2.2469018576885e-03
 5.8054557399689e-03
-1.1752628956447e-03
 3.3069801191043e-03
-3.4940109074240e-18
-2.0776871163201e-17
 1.7801244419496e-17
-7.1492888492521e-03
 1.5109076793548e-02
-3.7587197894542e-03
 8.3253412378213e-03
-2.4864046520534e-03
 7.3667253133869e-03
-1.3158262634700e-03
 4.0520939439031e-03
 1.7998603096207e-17
 1.2544557948836e-18
 7.0240207151063e-18
-7.9391882736779e-03
 1.8022486264869e-02
-4.2037254376321e-03
 9.6620976115673e-03
-2.8042750279838e-03
 8.7454091534167e-03
-1.4968331650262e-03
 4.6789059977161e-03
-2.9946002817228e-17
-1.6774640487424e-17
 4.3914423150399e-18
-8.9007091604074e-03
 2.0307110576066e-02
-4.7290949962497e-03
 1.0583418024901e-02
-3.1983010835717e-03
 9.8020853731537e-03
-1.7153495197917e-03
 5.0971269831539e-03
-1.0601464367835e-17
-2.8065589674324e-17
 6.9761633535864e-18
-1.0014306164958e-02
 2.1490234335271e-02
-5.3191558794294e-03
 1.0810883859349e-02
-3.6649810724825e-03
 1.0315086701313e-02
-1.9675780928239e-03
 5.1762667907607e-03
-3.9107511174731e-17
-1.5705684907989e-17
 1.9150567904473e-17
-1.1291205203441e-02
 2.0992558680136e-02
-5.9582054889014e-03
 1.0051672159960e-02
-4.2225132812490e-03
 1.0015009537300e-02
-2.2546469091882e-03
 4.7812187561735e-03
 2.0559183695756e-17
-4.4476005994429e-17
-2.2877512872391e-17
-1.3225353971682e-02
 1.8429238792534e-02
-7.1082206209181e-03
 8.2545867759052e-03
-5.1591530774005e-03
 8.7376312003269e-03
-2.8613990680579e-03
 3.9064584421258e-03
 1.9474981523271e-17
-5.4637013229691e-17
 1.2503900367368e-17
-2.0476941654201e-02
 1.4380440459412e-02
-1.4065175048339e-02
 6.1717872172053e-03
-8.8286510910720e-03
 6.8084589788728e-03
-6.3529662832611e-03
 2.9324444317815e-03
 3.9979955110403e-18
-2.4941732164850e-17
-1.5856456772600e-17
-4.3199282399299e-02
 9.8936438561044e-03
-2.8224988510395e-02
 3.4517077215597e-03
-1.9590563144483e-02
 4.7067258787159e-03
-1.2681280573633e-02
 1.6425587551083e-03
-4.2310989781247e-17
-2.5797235441577e-17
-6.0254535735882e-17
-3.6775214281549e-02
 2.7855670418431e-03
-1.6149472357327e-02
 1.3199797929211e-03
 4.8626467435975e-17
-6.0512033751847e-17
-2.0599841277225e-18
 1.4357525434276e-04
-2.2751049464680e-04
 2.7829306881122e-04
-4.1971297974896e-04
 1.5157585891856e-04
-1.1910201993048e-04
 2.4573166316555e-04
-2.2056646855755e-04
-1.4006536815797e-17
 6.9134829154896e-18
 1.6534083130404e-18
 1.2967745170020e-03
-2.9737498043627e-03
 9.7881283338053e-04
-2.7664825751326e-03
 9.7521725332239e-04
-1.5252339515934e-03
 6.8771319684280e-04
-1.4097000862923e-03
-2.3147716382566e-17
 2.3226490446660e-17
 8.5516446354794e-18
 1.7966716060447e-03
-9.5897131351407e-03
 6.6843942386852e-04
-7.0135646115084e-03
 1.3226828191488e-03
-4.8628491684517e-03
 5.4344169692955e-04
-3.5567506498206e-03
 2.7518406390398e-17
 1.4999259429979e-17
-8.6397360619939e-18
 2.4397765321971e-04
-1.9574497587195e-02
-4.7358138396492e-04
-1.2660314756866e-02
 6.3188843254025e-04
-9.9362738530524e-03
 3.9004116408003e-05
-6.4479695081006e-03
 1.7550522667109e-17
 5.5389178486853e-17
 1.5163583821747e-17
-1.9218219909183e-03
-3.0880711607277e-02
-1.4217440834239e-03
-1.8046311624905e-02
-2.8046470885101e-04
-1.5730583876073e-02
-3.1348714600021e-04
-9.2134472725367e-03
-3.6459686181614e-17
 1.0008541304757e-17
 7.8689360799925e-18
-3.0837498119642e-03
-3.9361612434782e-02
-1.5912968924611e-03
-2.0937277426135e-02
-6.7342116158997e-04
-2.0064344326823e-02
-2.8524402043395e-04
-1.0667534738388e-02
 3.4674140728802e-17
-5.4288035655423e-17
 7.1692868655604e-18
-2.7618332830337e-03
-4.1885526147102e-02
-1.1262386916000e-03
-2.0646394000728e-02
-3.6838730855138e-04
-2.1283864429291e-02
-6.9152550619123e-07
-1.0461077087344e-02
-3.7113595616894e-17
-7.5164856706399e-17
-1.3366179907673e-17
-1.7302500192260e-03
-3.9135745594209e-02
-6.1474490815883e-04
-1.8392592248510e-02
 2.0679831010995e-04
-1.9772874094815e-02
 2.4406405464106e-04
-9.2594247850712e-03
 9.0225949541528e-18
-6.7728754462454e-18
-9.7493492228970e-19
-9.9992521560477e-04
-3.4062811535990e-02
-4.1405668946060e-04
-1.5697942947867e-02
 5.5021951212097e-04
-1.7112345258257e-02
 3.0558554549387e-04
-7.8667590769896e-03
 1.1849990932088e-17
 3.4665670399330e-17
 1.2617402782300e-17
-8.8161459348157e-04
-2.8947105363960e-02
-4.8220104266416e-04
-1.3298435889155e-02
 5.5024086782396e-04
-1.4493247569412e-02
 2.3570485488023e-04
-6.6531907358716e-03
-3.8140199548967e-17
 1.4851875697157e-17
 5.6285339345048e-19
-1.1244163028898e-03
-2.4529352353361e-02
-6.4133487505047e-04
-1.1260417306083e-02
 3.7487982179130e-04
-1.2272360510408e-02
 1.3457648726778e-04
-5.6359313835710e-03
 2.0270768977216e-17
 2.5624864236811e-17
 5.3985644893253e-18
-1.4265444461410e-03
-2.0672008733491e-02
-7.7874520116272e-04
-9.4205746386109e-03
 1.9147835939037e-04
-1.0350532747695e-02
 5.6509522304182e-05
-4.7202561334583e-03
 1.2667377726188e-17
 2.3069154076708e-17
 1.0796493703940e-18
-1.6514252399826e-03
-1.7055679406436e-02
-8.6696767089789e-04
-7.6336851696084e-03
 6.4966185931325e-05
-8.5487948337981e-03
 9.5477130059862e-06
-3.8282691104214e-03
 2.7044279698172e-17
-1.5051775472709e-17
 3.0577889395880e-18
-1.7873973449962e-03
-1.3468687463090e-02
-9.1691844140063e-04
-5.8311566353666e-03
-7.1548265054844e-06
-6.7556252866567e-03
-1.5674869953131e-05
-2.9255180364878e-03
-1.8677076486957e-19
-7.6176849320131e-18
-1.1540823906340e-18
-1.8635249302683e-03
-9.8346272797212e-03
-9.4469327312297e-04
-4.0009020206639e-03
-4.4641282542557e-05
-4.9343974868266e-03
-2.8372742690408e-05
-2.0075974926179e-03
-1.7474077943619e-17
-1.3775932095907e-18
 2.5813329067575e-18
-1.9078130096144e-03
-6.1579173127235e-03
-9.6211953950487e-04
-2.1567504715847e-03
-6.2493317642520e-05
-3.0907592518079e-03
-3.3867135240229e-05
-1.0830682563494e-03
 3.7777669447542e-19
 1.7798279804181e-18
 5.3524011936999e-18
-1.9407893810683e-03
-2.4744891953272e-03
-9.7839019874790e-04
-3.1981294597472e-04
-6.9339218171649e-05
-1.2456657525499e-03
-3.5433275765939e-05
-1.6372193455538e-04
 2.6554482896422e-18
 1.3842106544911e-18
-2.7655625727853e-19
-1.9812487415791e-03
 1.1730766727567e-03
-1.0035078924915e-03
 1.4885977428776e-03
-7.1873801502420e-05
 5.7726637302524e-04
-3.6576497436158e-05
 7.3874324983336e-04
-2.2531076396964e-18
 3.3836848660441e-18
 2.0441022599614e-18
-2.0517804932361e-03
 4.7431095329813e-03
-1.0502482057753e-03
 3.2480178719681e-03
-7.8497629033336e-05
 2.3549613306475e-03
-4.2248931716671e-05
 1.6129050139853e-03
-2.8375603733019e-20
-3.7862372742267e-18
 2.9548744364966e-18
-2.1803714014208e-03
 8.1937208728586e-03
-1.1339018582559e-03
 4.9366910825626e-03
-1.0058927209400e-04
 4.0637370110748e-03
-5.8902021564222e-05
 2.4463297024440e-03
-2.3027861220529e-17
 1.4036182968951e-17
 2.9406866346301e-18
-2.3974138563787e-03
 1.1474377128183e-02
-1.2697329476698e-03
 6.5248720814566e-03
-1.5146293286250e-04
 5.6749368917766e-03
-9.3511566587878e-05
 3.2223162778404e-03
 3.2526065174565e-19
-9.0920516558277e-18
 3.1136931141068e-18
-2.7290475109147e-03
 1.4504640402031e-02
-1.4690382677918e-03
 7.9597294005680e-03
-2.4364457703285e-04
 7.1449580151848e-03
-1.5203883336135e-04
 3.9129452960438e-03
 8.3957905731846e-18
 1.0495585249428e-17
 7.5682393837172e-19
-3.1907262124591e-03
 1.7134044875222e-02
-1.7365182123048e-03
 9.1404196547202e-03
-3.8633380872710e-04
 8.3969822756318e-03
-2.3854362069287e-04
 4.4678142508676e-03
-1.0226228772201e-17
-9.3292208810589e-18
-9.9272261418204e-19
-3.7878378652572e-03
 1.9089998998444e-02
-2.0724903027181e-03
 9.8927515952241e-03
-5.8630507818691e-04
 9.2976987537319e-03
-3.5647295834806e-04
 4.8028558844209e-03
 2.6769629265025e-17
-1.0592994038362e-17
-5.6497097581862e-19
-4.5288022523966e-03
 1.9950508127769e-02
-2.4794174325033e-03
 9.9706370376325e-03
-8.5525203675019e-04
 9.6462831841491e-03
-5.1193873294153e-04
 4.8020842715353e-03
 7.3276820266969e-17
-2.3396744069058e-17
 6.9892923642689e-18
-5.4786815365109e-03
 1.9216694000265e-02
-2.9883256491736e-03
 9.1294566495890e-03
-1.2412427035002e-03
 9.2123812227896e-03
-7.3245117907206e-04
 4.3559575502083e-03
 2.2548017055909e-17
-2.2182098822696e-17
-1.8683852750535e-17
-7.3077516569242e-03
 1.6630083024533e-02
-4.2808073074432e-03
 7.4065807193335e-03
-2.1265926247693e-03
 7.9010265986073e-03
-1.4110961733031e-03
 3.5074871899177e-03
 5.7567747227191e-17
 9.4130771428370e-18
-1.0198276684942e-18
-1.4716077842753e-02
 1.2919045823389e-02
-1.1209499998689e-02
 5.5680669386433e-03
-5.8482091838670e-03
 6.1154572866102e-03
-4.8446055536608e-03
 2.6411713713603e-03
-7.2478915230656e-17
 1.7433632120388e-17
-4.3212232837125e-17
-3.5042301613931e-02
 8.9506579423402e-03
-2.2548517577008e-02
 3.1099693066992e-03
-1.5408502323759e-02
 4.2446537382199e-03
-9.8605815789092e-03
 1.4726367083977e-03
-6.4130558502518e-17
-7.8868931784742e-17
-2.7782680669941e-18
-2.8113462579823e-02
 2.5013196084442e-03
-1.1957796258443e-02
 1.1778608610484e-03
 6.5025025294818e-17
 3.4857099845409e-17
 1.0706496453294e-17
 4.3565616160418e-04
-2.3861344427453e-04
 6.6297810903326e-04
-4.3963691941529e-04
 2.8005175616852e-04
-1.1950813333206e-04
 4.1019107055498e-04
-2.2103189164002e-04
-9.4461114277800e-18
-5.9969932665605e-19
 1.2536087619364e-19
 2.3860110854880e-03
-2.9994291407731e-03
 1.6358163780583e-03
-2.7636953096124e-03
 1.3956710932193e-03
-1.4799786183144e-03
 9.2734589512589e-04
-1.3573215621277e-03
 5.5091022889420e-18
-9.6053536218638e-18
-1.1235045012381e-17
 3.1755150915979e-03
-9.5355946031772e-03
 1.4056923959798e-03
-6.9898467259293e-03
 1.8306416694935e-03
-4.6874922482125e-03
 8.2334436467613e-04
-3.4446901914297e-03
 5.6961271636957e-17
-3.2617544732869e-17
 1.0533701732055e-17
 2.0606954122677e-03
-1.9662191432328e-02
 5.8586409210792e-04
-1.2812477300219e-02
 1.3917096910978e-03
-9.7457398257972e-03
 5.0071433164467e-04
-6.3900674670940e-03
 1.2156616858994e-17
 5.5451858924950e-17
 7.2607664238639e-18
 7.0862924407233e-04
-3.1484899256330e-02
 8.9268666148445e-05
-1.8505029081966e-02
 9.1568019774613e-04
-1.5771686253441e-02
 3.8185831281590e-04
-9.3269048200391e-03
 3.0422035333586e-17
 7.8943470684101e-19
-4.6119249912102e-17
 3.6689797146750e-04
-4.0504978644029e-02
 3.1969286327271e-04
-2.1574962581472e-02
 9.4023566872892e-04
-2.0454021356345e-02
 6.1664629917768e-04
-1.0935442342523e-02
-1.6083461602465e-17
-4.8856860397628e-18
-1.8201043970600e-17
 1.2453004291331e-03
-4.3123402863996e-02
 1.0065589019691e-03
-2.1192397294819e-02
 1.5331620758019e-03
-2.1850805037771e-02
 1.0246038756163e-03
-1.0741238689070e-02
 1.4426665157635e-17
-6.1392948016992e-18
 4.0843928716602e-18
 2.4736286612930e-03
-4.0013470535655e-02
 1.5257903077888e-03
-1.8706842225960e-02
 2.2332222022143e-03
-2.0247000088096e-02
 1.2895030796169e-03
-9.4451074832573e-03
-2.3242584072658e-18
-2.7211356947018e-17
 1.9058241313222e-17
 3.1158120443431e-03
-3.4498456322710e-02
 1.6099802529090e-03
-1.5828579777327e-02
 2.5654608428880e-03
-1.7386098901528e-02
 1.3053324098813e-03
-7.9571384606521e-03
-3.3492529767382e-17
 1.7836819803281e-17
 1.0004729656494e-17
 3.0248035820293e-03
-2.9117669681591e-02
 1.4153023550563e-03
-1.3350921704756e-02
 2.4835374737790e-03
-1.4621169256656e-02
 1.1779622821031e-03
-6.6951090521457e-03
-5.2261932845590e-19
 3.9759726544117e-18
-2.7897030117820e-18
 2.5912781461237e-03
-2.4616777437059e-02
 1.1740421656128e-03
-1.1301936940306e-02
 2.2217187980971e-03
-1.2341399464895e-02
 1.0371152476818e-03
-5.6654888703669e-03
 9.5799426334461e-18
-7.6487075137063e-19
 1.4679080975917e-18
 2.1727813483556e-03
-2.0761783134770e-02
 9.9900011031240e-04
-9.4701146213225e-03
 1.9814222516601e-03
-1.0409668796617e-02
 9.4014853753244e-04
-4.7502314261276e-03
 1.2989673762618e-17
-1.4889356905073e-17
 9.9233086144394e-18
 1.8960098941570e-03
-1.7157953788544e-02
 8.9875963867181e-04
-7.6854384694727e-03
 1.8284368700492e-03
-8.6085645146190e-03
 8.8710268329884e-04
-3.8574869713699e-03
-1.5623258014310e-17
-5.2864914424917e-18
 1.3023952127203e-17
 1.7443218439919e-03
-1.3565092226981e-02
 8.4768431852145e-04
-5.8746200819542e-03
 1.7483084742409e-03
-6.8089547549219e-03
 8.6146682638954e-04
-2.9489483852565e-03
 5.0722450463956e-18
 4.1567083095321e-18
 6.5163303423457e-19
 1.6705864747149e-03
-9.9075787134790e-03
 8.2489574764466e-04
-4.0297068855608e-03
 1.7123793456477e-03
-4.9720328810547e-03
 8.5152880411243e-04
-2.0213920834316e-03
 7.8505131133897e-18
 6.3634408953663e-18
-4.4264883032326e-18
 1.6440443266976e-03
-6.2003052405455e-03
 8.2083864582749e-04
-2.1701446835039e-03
 1.7040491426599e-03
-3.1073657611036e-03
 8.5310367465752e-04
-1.0858043166380e-03
-5.5174667392961e-18
 2.8255960329219e-18
 8.9817256144478e-19
 1.6513943338392e-03
-2.4896926084050e-03
 8.3175135596880e-04
-3.2176182479304e-04
 1.7183546159742e-03
-1.2406596248757e-03
 8.6576841122721e-04
-1.5620975556629e-04
 6.0636971111567e-19
 1.9520933060659e-18
-4.1191212224977e-18
 1.6852918268491e-03
 1.1729096483997e-03
 8.5392396230466e-04
 1.4899638834578e-03
 1.7546218925304e-03
 6.0022196525500e-04
 8.8934937765117e-04
 7.5365059467813e-04
 1.5049657890341e-18
-1.0795434912756e-18
 2.0233499527537e-18
 1.7354160487901e-03
 4.7370387892762e-03
 8.8069165601201e-04
 3.2397740435783e-03
 1.8109439920835e-03
 2.3878390447103e-03
 9.2210451652619e-04
 1.6299641170967e-03
-1.4141215054410e-18
 2.0131855573867e-18
-1.8236619354385e-18
 1.7848413031558e-03
 8.1496887556227e-03
 9.0189299257348e-04
 4.8995010140516e-03
 1.8817505250439e-03
 4.0928673559946e-03
 9.6021464661789e-04
 2.4569923729558e-03
 6.1676704054322e-18
 1.3454483092424e-17
 6.8639314880752e-18
 1.8108379644488e-03
 1.1345742663529e-02
 9.0513852482443e-04
 6.4313381979559e-03
 1.9576340343050e-03
 5.6788888311607e-03
 9.9807175263145e-04
 3.2135990061768e-03
 1.0884796888691e-17
 1.2431902566851e-17
 1.8130740235978e-18
 1.7884926567682e-03
 1.4228400504944e-02
 8.7787935871608e-04
 7.7745621646344e-03
 2.0264122264493e-03
 7.0927696018477e-03
 1.0288304812143e-03
 3.8669279722541e-03
-1.5021705803081e-17
-7.2734719180727e-18
-3.2060197053575e-18
 1.6938323957589e-03
 1.6635321213293e-02
 8.0814221176251e-04
 8.8250159739687e-03
 2.0738749977625e-03
 8.2490009232523e-03
 1.0443169014138e-03
 4.3631390645871e-03
 1.8743992089790e-17
 4.7603251635692e-19
 2.6770476297972e-18
 1.5009382723274e-03
 1.8297723925194e-02
 6.8135893899468e-04
 9.4162136663272e-03
 2.0817453433750e-03
 9.0119394696742e-03
 1.0332790758003e-03
 4.6196417081568e-03
 4.0564407844008e-18
 4.0066352471023e-17
-1.1329065669526e-17
 1.1667971860225e-03
 1.8826251348642e-02
 4.7221780759932e-04
 9.3269743573288e-03
 2.0193357370602e-03
 9.1925042182577e-03
 9.7716369679901e-04
 4.5310759182673e-03
 1.9285246143086e-17
 7.8181141031572e-18
-1.9532579763684e-18
 5.5811256564287e-04
 1.7797505979695e-02
 8.7770564608292e-05
 8.3654790028049e-03
 1.8010876975865e-03
 8.5966674395608e-03
 8.1440120303000e-04
 4.0156640930036e-03
-2.1470591147002e-17
 3.8387533169565e-17
 2.4090464052860e-17
-1.1891947936817e-03
 1.5102629348802e-02
-1.3519654290208e-03
 6.6724878843516e-03
 9.4701249329887e-04
 7.2099211726788e-03
 6.1614836484480e-05
 3.1712113863271e-03
 7.2844833463870e-18
 5.3103883595161e-17
-1.5368565794982e-17
-8.6476289648587e-03
 1.1627979963366e-02
-8.0822008673067e-03
 5.0175119510314e-03
-2.7710112726922e-03
 5.5163792304143e-03
-3.2322675566050e-03
 2.3816991726360e-03
 6.1941825366812e-17
 2.7630214739435e-18
 1.1980434005965e-17
-2.6594599001522e-02
 8.0639979851957e-03
-1.7001454283550e-02
 2.7800604182175e-03
-1.1155071387925e-02
 3.8198376617613e-03
-7.1438756002724e-03
 1.3139417600971e-03
 1.3660947373317e-17
 5.7266203497969e-17
 4.5170573011177e-17
-2.0065186300366e-02
 2.2240758233538e-03
-8.1015902419139e-03
 1.0431462719609e-03
 5.8858625438807e-17
-1.3789696381300e-17
 3.3589938556316e-17
 6.0747492214626e-04
-2.2887605389049e-04
 8.6911605759310e-04
-4.2204305773774e-04
 3.2271992293631e-04
-1.0927324159726e-04
 4.5384095309744e-04
-2.0217965996144e-04
-1.9515639104739e-18
-2.0294909416213e-18
-1.1655173354219e-18
 2.8471280067572e-03
-2.7956590223678e-03
 1.8667099300083e-03
-2.5628280799481e-03
 1.4363220234941e-03
-1.3212293124696e-03
 9.2193753411188e-04
-1.2074059056543e-03
 2.9544509200230e-18
-1.7489536294907e-17
-2.5072175238727e-19
 3.6976799102998e-03
-8.8787243943686e-03
 1.7284763905674e-03
-6.5579050355238e-03
 1.8535074339119e-03
-4.2077546424535e-03
 8.7080799099315e-04
-3.1205243514263e-03
 8.4025668367627e-18
 4.8009827450374e-18
-1.5009423825346e-18
 3.1390518586994e-03
-1.8729729695534e-02
 1.3201094086455e-03
-1.2376015972682e-02
 1.7162378237829e-03
-9.0111836630333e-03
 7.6529648326540e-04
-6.0063330861380e-03
 3.6930636500288e-17
 2.4218366027895e-17
 9.1581202257135e-18
 2.7503455968922e-03
-3.0881801637593e-02
 1.3295478127195e-03
-1.8402695494201e-02
 1.7422746889242e-03
-1.5138328584852e-02
 9.0038424551420e-04
-9.1155081100030e-03
-7.8062556418956e-18
 2.3364556817063e-17
-1.0130514049161e-18
 3.3441773947924e-03
-4.0763966357267e-02
 2.0006640081192e-03
-2.1919900469051e-02
 2.2499573085106e-03
-2.0329222285419e-02
 1.3677909895327e-03
-1.1028837960365e-02
-7.0316440116316e-18
 3.2668366709704e-17
 1.9972719258901e-17
 4.8835254702833e-03
-4.4091471201975e-02
 2.9734042177498e-03
-2.1734663044377e-02
 3.2050818534550e-03
-2.2252530888602e-02
 1.9490242719113e-03
-1.1018419750586e-02
 4.3456178325935e-17
-3.8001286145617e-17
 1.4223377250294e-17
 6.4249800855745e-03
-4.1054445439339e-02
 3.5797945885607e-03
-1.9146905025039e-02
 4.1170346687558e-03
-2.0813280271065e-02
 2.2921174599304e-03
-9.7039569462076e-03
-1.0847442735718e-16
 3.9099040845259e-18
-2.9612271836010e-18
 7.0938730509571e-03
-3.5198651740206e-02
 3.6014291399493e-03
-1.6077689760820e-02
 4.5188014066895e-03
-1.7810875751930e-02
 2.2992173763949e-03
-8.1129513913361e-03
 4.7962393605328e-17
-1.7732634750769e-17
-1.1892342579450e-18
 6.8699131134622e-03
-2.9478218440034e-02
 3.2979053325652e-03
-1.3473208925340e-02
 4.4029855911774e-03
-1.4851136431320e-02
 2.1233790908113e-03
-6.7712102700632e-03
 2.7810632757200e-17
-2.7582780894389e-17
 1.9286516692507e-17
 6.2718169825544e-03
-2.4801746278212e-02
 2.9724760263632e-03
-1.1376192361112e-02
 4.0650409369292e-03
-1.2455190920109e-02
 1.9367846033553e-03
-5.7074160982289e-03
-3.1119990482123e-17
 2.9825724138718e-17
-3.7197451878673e-18
 5.7338896565078e-03
-2.0894802512442e-02
 2.7538066676267e-03
-9.5349857857272e-03
 3.7576993408592e-03
-1.0482809149114e-02
 1.8126122658195e-03
-4.7840734312263e-03
 1.4021783408848e-17
-9.3114331891665e-18
 1.3645277263793e-17
 5.3959850571310e-03
-1.7282012090312e-02
 2.6378816834347e-03
-7.7462733444520e-03
 3.5654894692314e-03
-8.6733048801544e-03
 1.7481212534705e-03
-3.8890875873889e-03
-5.8775616209976e-18
-3.1897143211229e-17
-3.7680260658608e-18
 5.2226490136071e-03
-1.3674627910612e-02
 2.5844120456211e-03
-5.9229433220480e-03
 3.4691670889941e-03
-6.8661861787986e-03
 1.7196095034517e-03
-2.9742338791952e-03
-5.3218021284804e-18
 1.0762082990458e-17
 3.8428826025743e-19
 5.1489679475392e-03
-9.9828274001297e-03
 2.5663659146220e-03
-4.0558457210835e-03
 3.4308285401750e-03
-5.0107098831229e-03
 1.7113825153032e-03
-2.0342046553914e-03
 1.5357236729312e-18
 1.5830410509472e-17
-6.4284506740681e-18
 5.1397486199214e-03
-6.2248683392365e-03
 2.5758707911558e-03
-2.1679949401801e-03
 3.4301495196729e-03
-3.1161112067588e-03
 1.7194386234500e-03
-1.0813504952409e-03
-9.3325031337295e-18
-9.0954397876167e-18
 7.4815243857420e-18
 5.1884468796466e-03
-2.4556499533919e-03
 2.6149085780260e-03
-2.8961286626839e-04
 3.4646420986064e-03
-1.2119875078152e-03
 1.7460376600198e-03
-1.3195164583379e-04
-2.6165906531869e-18
 5.2439809764514e-18
-3.6380065084572e-18
 5.2999972426573e-03
 1.2645365711457e-03
 2.6867688409635e-03
 1.5493718524056e-03
 3.5396249266313e-03
 6.6902808724123e-04
 1.7945965221990e-03
 7.9782926771088e-04
 1.1475178852928e-18
 1.1856343679192e-17
 7.4289024638938e-18
 5.4776672852839e-03
 4.8756275198940e-03
 2.7915676598491e-03
 3.3184318855604e-03
 3.6602200802065e-03
 2.4942370589223e-03
 1.8669210682880e-03
 1.6913192323393e-03
 5.6581800876587e-19
-6.1354831534365e-18
 4.4105005563531e-18
 5.7166998570715e-03
 8.3122654478664e-03
 2.9246378592100e-03
 4.9821534942680e-03
 3.8272061869265e-03
 4.2275891847137e-03
 1.9620202771105e-03
 2.5288532253072e-03
 4.7560899988329e-19
 5.7729530520117e-18
 5.9474418391461e-18
 6.0023990439149e-03
 1.1492215870332e-02
 3.0763202759347e-03
 6.4928128051278e-03
 4.0352587834960e-03
 5.8232573665116e-03
 2.0755685410201e-03
 3.2838004480471e-03
 1.8883329009614e-17
 1.1053356445195e-17
 7.5462165270886e-18
 6.3101570828632e-03
 1.4296766233143e-02
 3.2319406268146e-03
 7.7779384914720e-03
 4.2720600918074e-03
 7.2156137429338e-03
 2.1993598157160e-03
 3.9164428042540e-03
-2.7791150999414e-18
-6.7864279734014e-18
 6.4425325968162e-18
 6.6046448336152e-03
 1.6541222647845e-02
 3.3704424563115e-03
 8.7234138238657e-03
 4.5169619732377e-03
 8.3053213406341e-03
 2.3201484238804e-03
 4.3663380138881e-03
-2.6550671248160e-17
-4.1487673756516e-18
 8.5673147450036e-18
 6.8342640149979e-03
 1.7944788124725e-02
 3.4600394130484e-03
 9.1615896780084e-03
 4.7375538483649e-03
 8.9468627146299e-03
 2.4173122103566e-03
 4.5482076286589e-03
-3.0098892264208e-17
 1.0670074036562e-17
-2.4033501087157e-17
 6.9132389863320e-03
 1.8133983182061e-02
 3.4465779270647e-03
 8.8893488402633e-03
 4.8797297599919e-03
 8.9551225082385e-03
 2.4565836224628e-03
 4.3643369000339e-03
 6.2756671062071e-18
-1.8192573641128e-17
-3.5350920053658e-18
 6.6239744340280e-03
 1.6757369246065e-02
 3.1610658666212e-03
 7.7731403420387e-03
 4.8122434855955e-03
 8.1717201692784e-03
 2.3359381704360e-03
 3.7638443005363e-03
 2.0532078641444e-17
 2.3101976603414e-17
-2.5461810394464e-18
 4.9154069084762e-03
 1.3877200967361e-02
 1.5781672584283e-03
 6.0674333379254e-03
 3.9677054262270e-03
 6.6733889903330e-03
 1.5153192279378e-03
 2.9031859933522e-03
-1.5659945128837e-17
 2.0369448315571e-17
-3.4643647542701e-17
-2.4685756888969e-03
 1.0538970605831e-02
-4.7983216132623e-03
 4.5362987541964e-03
 3.2183994779444e-04
 5.0235091956434e-03
-1.5656701296685e-03
 2.1618236967882e-03
-7.9465242979609e-17
 3.0573654231144e-17
 7.5216525716182e-18
-1.8115438393448e-02
 7.2692144447650e-03
-1.1708662670938e-02
 2.4776110652880e-03
-6.9382463667793e-03
 3.4484690656429e-03
-4.5799871867462e-03
 1.1746108703630e-03
 6.3452932144714e-17
 2.0684544571950e-17
-7.1015242297800e-18
-1.2709064533097e-02
 1.9692034706313e-03
-4.5987552172022e-03
 9.2298239978028e-04
 4.5258664437692e-17
 2.7999521104438e-17
 3.5082410609379e-17
 5.8854440178385e-04
-2.0058730973632e-04
 8.1661617132833e-04
-3.7076257625355e-04
 2.6342393977097e-04
-9.1267972036624e-05
 3.6218041841994e-04
-1.6892995938333e-04
 1.1655173354219e-18
-4.9941062570114e-18
 2.0328790734103e-19
 2.5356696232761e-03
-2.3973251476390e-03
 1.6105641525037e-03
-2.1911130515761e-03
 1.0961907589875e-03
-1.0807684857872e-03
 6.8188667576596e-04
-9.8485437503282e-04
-4.5943067059073e-18
 2.7308342219479e-17
 4.4587814343466e-18
 3.2454858174566e-03
-7.6676789326193e-03
 1.5690218045252e-03
-5.7234584176007e-03
 1.4023499223543e-03
-3.4761864136865e-03
 6.8152896765694e-04
-2.6059708043871e-03
 2.3168045173300e-17
 1.2342964107390e-17
 6.9863277489535e-18
 3.2735894125297e-03
-1.6709839584345e-02
 1.6043372803658e-03
-1.1262946267066e-02
 1.5543976317201e-03
-7.7327134536782e-03
 7.9537759319992e-04
-5.2678639640576e-03
 2.1724701031178e-17
 6.0240983208726e-18
 3.0560948736935e-18
 3.9163368900311e-03
-2.8788128403576e-02
 2.1535838745212e-03
-1.7555188100145e-02
 2.0919430664321e-03
-1.3696837924987e-02
 1.1867816848987e-03
-8.4764443412144e-03
-9.4190063734678e-19
 1.4175943405248e-17
-4.2710789332351e-17
 5.5757689621616e-03
-3.9737895342109e-02
 3.3296704568178e-03
-2.1796551369544e-02
 3.1360613055664e-03
-1.9450281468540e-02
 1.9086080447774e-03
-1.0828852838213e-02
 1.0720048980450e-17
 5.1519931983796e-17
-2.3461118573050e-17
 7.9843137526288e-03
-4.4525538924851e-02
 4.7080151204970e-03
-2.2204325687845e-02
 4.5594237314219e-03
-2.2302440111148e-02
 2.7297699926949e-03
-1.1236872658490e-02
 2.3378109344219e-18
-3.2952969779981e-17
-2.1667102790765e-17
 1.0083766587050e-02
-4.2224544564117e-02
 5.5467006455451e-03
-1.9732036864006e-02
 5.8236035428827e-03
-2.1430606315703e-02
 3.2407955046967e-03
-1.0044906525335e-02
 1.6967763999398e-17
-3.7879313401212e-18
-3.0405094674640e-17
 1.0980948224493e-02
-3.6237643483987e-02
 5.6021510352515e-03
-1.6481302150062e-02
 6.4212830361683e-03
-1.8431890291517e-02
 3.3033434683638e-03
-8.3606763351636e-03
-2.8202809011779e-17
-1.9115839553635e-17
 1.0272815584300e-17
 1.0728995287372e-02
-3.0087596784211e-02
 5.2111250706730e-03
-1.3680928397939e-02
 6.3432016757474e-03
-1.5229150818618e-02
 3.0965616787793e-03
-6.8964089663837e-03
-2.7206698265808e-18
-1.8695711211797e-17
 3.0925172904255e-18
 9.9772112220871e-03
-2.5096458275392e-02
 4.7796607386568e-03
-1.1480074314761e-02
 5.9394784477576e-03
-1.2630856021583e-02
 2.8507765856833e-03
-5.7634254222467e-03
-1.5168666019430e-17
 3.1099661691389e-17
 1.5679003370151e-17
 9.2813235647045e-03
-2.1056505814416e-02
 4.4887275931058e-03
-9.6061349897951e-03
 5.5390753439610e-03
-1.0566993414256e-02
 2.6787506194896e-03
-4.8181360716999e-03
-1.1812721482409e-17
-1.4060746924421e-19
-8.0883176133313e-18
 8.8389353796874e-03
-1.7410465018923e-02
 4.3376977378338e-03
-7.8098169928538e-03
 5.2754857713282e-03
-8.7353183218073e-03
 2.5875071551447e-03
-3.9201099946293e-03
 3.2878430880623e-17
-5.4633625097902e-18
-4.2393999010078e-18
 8.6148732039586e-03
-1.3788772231228e-02
 4.2720602897697e-03
-5.9749309516377e-03
 5.1399228588309e-03
-6.9236664191001e-03
 2.5477683726578e-03
-3.0013034795395e-03
 1.3854917918239e-17
 1.1696254452161e-17
 1.1343676987866e-17
 8.5256800959321e-03
-1.0061814661022e-02
 4.2540948341794e-03
-4.0821948361298e-03
 5.0861688679689e-03
-5.0527411052015e-03
 2.5370797062951e-03
-2.0485963917451e-03
-1.8813237033229e-17
 2.9745679525203e-18
 1.0390976680442e-18
 8.5252180953486e-03
-6.2392272977210e-03
 4.2741302577851e-03
-2.1549946120842e-03
 5.0858248729781e-03
-3.1236490234217e-03
 2.5489616400520e-03
-1.0737344393590e-03
 3.6610881562699e-18
-2.3297641214230e-18
 1.5991982044161e-18
 8.6091971295481e-03
-2.3815593233376e-03
 4.3386576852917e-03
-2.2780584963300e-04
 5.1351964270481e-03
-1.1681167130617e-03
 2.5870964915384e-03
-9.5252161305126e-05
 1.0157619103474e-17
-5.5429836068321e-18
-1.3976255387933e-17
 8.7935691379641e-03
 1.4407428078016e-03
 4.4581483229722e-03
 1.6640032921629e-03
 5.2440355442371e-03
 7.7555623943359e-04
 2.6582857851878e-03
 8.6756058698612e-04
 2.0388294798648e-17
-4.0873574869756e-18
 1.1695301540095e-17
 9.0958098011296e-03
 5.1555405820345e-03
 4.6401146249630e-03
 3.4833070730116e-03
 5.4243978043047e-03
 2.6677036245224e-03
 2.7681126759713e-03
 1.7942681901069e-03
-1.6770511201806e-17
-1.6411263353052e-18
-4.9223202147315e-18
 9.5243427172083e-03
 8.6821085973270e-03
 4.8858046747098e-03
 5.1857662798227e-03
 5.6838319138777e-03
 4.4635485727014e-03
 2.9186572543640e-03
 2.6602120215688e-03
 6.1452240323299e-19
-3.6591823321386e-19
-6.0066282663355e-18
 1.0072945469364e-02
 1.1916982137045e-02
 5.1881869572994e-03
 6.7112223754790e-03
 6.0214134458008e-03
 6.1053458118010e-03
 3.1069245291580e-03
 3.4318233427886e-03
-1.0431210745437e-18
 1.9547402840261e-17
-3.1446098166816e-19
 1.0716603559015e-02
 1.4713051959548e-02
 5.5296718461335e-03
 7.9713628029552e-03
 6.4245888716243e-03
 7.5113919506302e-03
 3.3231164333145e-03
 4.0603886493482e-03
 4.3033508885255e-18
 1.7313353441878e-17
 2.2022856628612e-18
 1.1406305017962e-02
 1.6852997509339e-02
 5.8785208599650e-03
 8.8358534195834e-03
 6.8655390585519e-03
 8.5632712609165e-03
 3.5483281988444e-03
 4.4758185038507e-03
 1.0719201947503e-18
-2.0023858873092e-17
-9.6773514223804e-18
 1.2060207496308e-02
 1.8029794981436e-02
 6.1828014502172e-03
 9.1281245172894e-03
 7.2959351098163e-03
 9.0987541146599e-03
 3.7512685001460e-03
 4.5866383007667e-03
 2.2507359474441e-17
 1.2585215530304e-17
 1.3313452106706e-17
 1.2541067192719e-02
 1.7872451885468e-02
 6.3525283882351e-03
 8.6585771883847e-03
 7.6341853471362e-03
 8.9309724355253e-03
 3.8784684163069e-03
 4.3013272003964e-03
 2.4174320314638e-18
-1.3121387385916e-17
 4.8657807655023e-18
 1.2532718470654e-02
 1.6103198110739e-02
 6.1352675434321e-03
 7.3594277845288e-03
 7.6976276586436e-03
 7.9397976554831e-03
 3.7858915803426e-03
 3.6040606227097e-03
 1.4345349994699e-17
-2.5410988417629e-19
-3.6371594755100e-18
 1.0835879697005e-02
 1.2974823517261e-02
 4.4404599922498e-03
 5.6038276560528e-03
 6.8588988847935e-03
 6.3024522304063e-03
 2.9217631783265e-03
 2.7108532513260e-03
 2.8893987896739e-17
 8.6295716666268e-18
-1.3274700349369e-17
 3.6863591942185e-03
 9.6827887546667e-03
-1.4419405868371e-03
 4.1420428509156e-03
 3.3766914109563e-03
 4.6541834389013e-03
 1.2038978607798e-04
 1.9926386145013e-03
 4.0203571808478e-17
 6.6181225267820e-17
-1.8306076056060e-17
-9.7792444373548e-03
 6.6045791221239e-03
-6.7344402281195e-03
 2.2184375204830e-03
-2.8233951617125e-03
 3.1519795502284e-03
-2.1891968642525e-03
 1.0650937059200e-03
 1.3796472644878e-17
-5.5341744641807e-17
 2.0125502826762e-17
-6.0439112902389e-03
 1.7515165934654e-03
-1.4279994795103e-03
 8.2614881228871e-04
-1.5331973971661e-16
 6.7450927655754e-17
-3.1407981684189e-17
 3.9805435909937e-04
-1.6188542293391e-04
 5.4166303178782e-04
-2.9972505441816e-04
 1.3693962873496e-04
-7.0753895325293e-05
 1.8465102974499e-04
-1.3054552546737e-04
 1.1113072267976e-18
 1.0706496453294e-18
-1.0842021724855e-19
 1.6059452848395e-03
-1.8890716737813e-03
 9.7723925738391e-04
-1.7173367609768e-03
 5.2695105710932e-04
-8.1204915623800e-04
 3.0302959596823e-04
-7.3357817948955e-04
 4.2283884726935e-18
-6.5255418256471e-18
-1.0503208545953e-18
 2.0052846466170e-03
-6.0730409457656e-03
 9.9708704361934e-04
-4.5763477048834e-03
 6.4621677381638e-04
-2.6104469577666e-03
 3.2419080351320e-04
-1.9712376596578e-03
 1.2766480581017e-17
 1.1902506974817e-17
-6.2341624917916e-18
 2.5036936896547e-03
-1.3733637331044e-02
 1.4187767183052e-03
-9.4813101262146e-03
 9.9486970222085e-04
-6.0356006500879e-03
 6.1317491123125e-04
-4.2159229104891e-03
-2.4868887331386e-17
 2.4394548880924e-18
-2.5092504029461e-17
 4.0775343902568e-03
-2.5060969798544e-02
 2.4707803444979e-03
-1.5788529247937e-02
 1.9561111631390e-03
-1.1427449101574e-02
 1.2262843846544e-03
-7.3366052693564e-03
-2.0057740190982e-18
 3.4348880077056e-17
 9.9814362504447e-18
 6.8291893281680e-03
-3.6926351291512e-02
 4.1853687655284e-03
-2.0924425802274e-02
 3.5129771590920e-03
-1.7552741349197e-02
 2.1892421609655e-03
-1.0164169252463e-02
-1.1472214237612e-17
-1.7225262015364e-17
-3.6930636500288e-18
 1.0325219128457e-02
-4.3895325380324e-02
 6.1075992528893e-03
-2.2415796740656e-02
 5.4822520274982e-03
-2.1662235149008e-02
 3.3023339750899e-03
-1.1264649735294e-02
 8.3466626622439e-17
-1.2305694657710e-17
-1.3938774180017e-17
 1.3336339587012e-02
-4.3315076394299e-02
 7.3834895253035e-03
-2.0443275757962e-02
 7.2698752184195e-03
-2.1941372664745e-02
 4.0931701541505e-03
-1.0449684463842e-02
 6.9416044093384e-17
 1.5246593050577e-17
 4.1599482105553e-17
 1.4785780195772e-02
-3.7690892124028e-02
 7.6369164978904e-03
-1.7101649513144e-02
 8.2497750967576e-03
-1.9291931944229e-02
 4.3156041800394e-03
-8.7461134553077e-03
 4.7637132953582e-17
-3.9370091388380e-18
-2.5478751053409e-17
 1.4682597983985e-02
-3.1085446917429e-02
 7.2129579234277e-03
-1.4028697444907e-02
 8.3318763394331e-03
-1.5857810948657e-02
 4.1246451534622e-03
-7.1143568861576e-03
 4.1568988919452e-17
-9.0784991286716e-18
 6.0613677705518e-18
 1.3799354867571e-02
-2.5583791763626e-02
 6.6450533537241e-03
-1.1635362904102e-02
 7.8953845588572e-03
-1.2935902395603e-02
 3.8107451377840e-03
-5.8527905950143e-03
-1.3369779797699e-17
 3.8116482626444e-19
 1.3476611828171e-17
 1.2875517846155e-02
-2.1267923475221e-02
 6.2255452348334e-03
-9.6842664876675e-03
 7.3687693017703e-03
-1.0683052669667e-02
 3.5577489824732e-03
-4.8543060595048e-03
 8.0518951965994e-18
 1.8262030342803e-18
-1.9233577133303e-17
 1.2238972855267e-02
-1.7536414101002e-02
 5.9937705314264e-03
-7.8717715725105e-03
 6.9773975919674e-03
-8.7910458765250e-03
 3.4083311363808e-03
-3.9469974867057e-03
 1.6330795223063e-17
-2.4015078120554e-17
-9.7959360349960e-18
 1.1895463733547e-02
-1.3900219949699e-02
 5.8888937726080e-03
-6.0301160735392e-03
 6.7539006102990e-03
-6.9743713863140e-03
 3.3366485195749e-03
-3.0283856601265e-03
-7.3437756526948e-18
 1.2008386093224e-17
 9.9983769093898e-18
 1.1748921201766e-02
-1.0148242521330e-02
 5.8566131746065e-03
-4.1142201091802e-03
 6.6527193652917e-03
-5.0976605207476e-03
 3.3117417104336e-03
-2.0668280335307e-03
-2.4404713276291e-17
-8.6524415562027e-18
 1.5142619756302e-17
 1.1732398671532e-02
-6.2584408164472e-03
 5.8780893351023e-03
-2.1411963165434e-03
 6.6331941595124e-03
-3.1377192499549e-03
 3.3201799674583e-03
-1.0687671723613e-03
 7.4104794972911e-18
 2.3009650012163e-18
-7.1635693931664e-18
 1.1833559671448e-02
-2.2896878855807e-03
 5.9600376815574e-03
-1.4866590943541e-04
 6.6836740268457e-03
-1.1228600894291e-03
 3.3638207073068e-03
-5.4104094342477e-05
 5.7217075587028e-19
 4.8153823051407e-19
-1.3433519026980e-17
 1.2073808756693e-02
 1.6767354389753e-03
 6.1187126345152e-03
 1.8213247152943e-03
 6.8138390174965e-03
 9.0284275597163e-04
 3.4513977291688e-03
 9.5400394232037e-04
-1.0715178541004e-17
-5.7344130529116e-19
 1.9979601401598e-17
 1.2483265579212e-02
 5.5530224729754e-03
 6.3690860452072e-03
 3.7230355945326e-03
 7.0408159189839e-03
 2.8905646195456e-03
 3.5919513303835e-03
 1.9301087032027e-03
 1.2152805210731e-18
 8.5550327672684e-19
 1.2894170797815e-17
 1.3083891480870e-02
 9.2384773859280e-03
 6.7187670634290e-03
 5.5007584528042e-03
 7.3786641745741e-03
 4.7839933405485e-03
 3.7907969862125e-03
 2.8431045518236e-03
-1.7600285852760e-17
-1.4444452849528e-17
-7.4992061985159e-18
 1.3878742809702e-02
 1.2602779100655e-02
 7.1636821943244e-03
 7.0787362119020e-03
 7.8313193273445e-03
 6.5102164821698e-03
 4.0466031463566e-03
 3.6507344866958e-03
-3.0216735722995e-17
-1.6135977645194e-17
-1.2995497114131e-17
 1.4842997800006e-02
 1.5462896979717e-02
 7.6834162717228e-03
 8.3483968430684e-03
 8.3867850318811e-03
 7.9674017668956e-03
 4.3484046028333e-03
 4.2930247138120e-03
 2.7751234571774e-17
 1.2841019480375e-18
 1.1999174609923e-17
 1.5913994898957e-02
 1.7558545140980e-02
 8.2352481739889e-03
 9.1572060865204e-03
 9.0110162914812e-03
 9.0128298221503e-03
 4.6720476524484e-03
 4.6874008059792e-03
 2.4344997453510e-17
 6.2824433697852e-18
 1.5790811719188e-17
 1.6978074378620e-02
 1.8543918460095e-02
 8.7453862135438e-03
 9.3132857081457e-03
 9.6402586307818e-03
 9.4616920348445e-03
 4.9753549514229e-03
 4.7335568838758e-03
-1.7196039378683e-17
-4.9348139507035e-18
 1.7514523766851e-18
 1.7840761642582e-02
 1.8041651031858e-02
 9.0827621541922e-03
 8.6390234363165e-03
 1.0164207569666e-02
 9.1222057126803e-03
 5.1839736006656e-03
 4.3463260451375e-03
 3.7110207485105e-17
-1.1961799281125e-17
-8.6295716666268e-18
 1.8084101511200e-02
 1.5854794983992e-02
 8.9187582537358e-03
 7.1405517129719e-03
 1.0351378937095e-02
 7.9173749298338e-03
 5.1192545284451e-03
 3.5487466391420e-03
-3.7249120888455e-17
-1.4868816356102e-17
-8.5008226586442e-18
 1.6433375268670e-02
 1.2439108266244e-02
 7.1903562288034e-03
 5.3071877151112e-03
 9.5579065593654e-03
 6.1285709945453e-03
 4.2645562787094e-03
 2.6129232686340e-03
-1.6601845766184e-18
-5.2634627342382e-17
 1.2658060363768e-17
 9.7385973416628e-03
 9.1181820406403e-03
 1.9360983170307e-03
 3.8664245430269e-03
 6.3687436641615e-03
 4.4481540827217e-03
 1.8098302301386e-03
 1.8966238506284e-03
-3.4958743799080e-17
 2.8351886810496e-17
-1.0069527676959e-17
-1.6656526888887e-03
 6.1322536545303e-03
-2.0778870518416e-03
 2.0263142754686e-03
 1.1769979483347e-03
 2.9706335910964e-03
 4.1355507960361e-05
 1.0040223993073e-03
 4.3652689969698e-17
 5.4952109486070e-17
-2.0057740190982e-18
 1.6875889561341e-05
 1.5922392933607e-03
 1.4802805905134e-03
 7.6802978921897e-04
-8.3578434971476e-17
-3.5192524892522e-17
-2.9002408113987e-18
 1.4021405777441e-04
-1.2307495165383e-04
 1.8397613386045e-04
-2.2721683121458e-04
 1.0030181177623e-05
-5.2662799009229e-05
 8.9219988453904e-06
-9.6260307653570e-05
 2.4665599424045e-18
-2.6766241133236e-19
-1.7618285302889e-19
 4.5981186462042e-04
-1.3781861365667e-03
 2.1585719296757e-04
-1.2344865427668e-03
-3.1413446252237e-05
-5.6969128934292e-04
-6.7595930083597e-05
-5.0224532941912e-04
-3.3542504711270e-18
-1.8719428134320e-18
 3.9979955110403e-19
 4.4110059882996e-04
-4.3657015634020e-03
 2.2374763947219e-04
-3.2957774259469e-03
-1.3407779703245e-04
-1.7655733802397e-03
-7.0511077927660e-05
-1.3252267660332e-03
-1.0354130747237e-17
-7.9926028902916e-18
-1.1916059501974e-17
 1.1607705254130e-03
-1.0188208107381e-02
 8.8553108684630e-04
-7.2060075487737e-03
 2.6261214142753e-04
-4.1798205441903e-03
 3.0538408643110e-04
-2.9884514790289e-03
-2.4042183174866e-17
-1.9366561306022e-17
-2.3920210430461e-18
 3.3521612492949e-03
-1.9899603052078e-02
 2.2919125448917e-03
-1.3055949337469e-02
 1.4563882042156e-03
-8.5338351452446e-03
 1.0584376910183e-03
-5.7278336089339e-03
-1.6534083130404e-18
-2.6657820915987e-17
-2.0654051385849e-17
 6.9823779571798e-03
-3.1952040228248e-02
 4.4648900532236e-03
-1.8969031479488e-02
 3.3721777971198e-03
-1.4501781300476e-02
 2.1904570506694e-03
-8.8614958743318e-03
-2.6291902682774e-17
 3.1645150909421e-18
 3.2322777267224e-18
 1.1618097567797e-02
-4.1403019656040e-02
 7.0119572665899e-03
-2.2011123347401e-02
 5.8447340866117e-03
-1.9863979443776e-02
 3.5839392587143e-03
-1.0860184293120e-02
 1.4135285823780e-17
 1.9508862841161e-17
-9.7713720795256e-18
 1.5907920728444e-02
-4.3769022731458e-02
 8.9613126870050e-03
-2.1153278232301e-02
 8.2882533289705e-03
-2.1952174035292e-02
 4.7558737935294e-03
-1.0813270241614e-02
-3.3881317890172e-19
 3.9302328752599e-17
 3.1990740351900e-17
 1.8390525932953e-02
-3.9528937741154e-02
 9.6713168974535e-03
-1.8012635605842e-02
 9.8959312038538e-03
-2.0338769175162e-02
 5.2877140292154e-03
-9.3162757305762e-03
-7.2234969741847e-18
-3.9559826768565e-17
 3.9092264581681e-17
 1.8775460092079e-02
-3.2713139683148e-02
 9.3569777139133e-03
-1.4636031518265e-02
 1.0354092124693e-02
-1.6901650322539e-02
 5.2177782260543e-03
-7.5161855581634e-03
-1.6466320494624e-17
-3.8794108984247e-17
 1.6767864223846e-17
 1.7867978693335e-02
-2.6483501454776e-02
 8.6528682126787e-03
-1.1917087980521e-02
 9.9877200842044e-03
-1.3538664328916e-02
 4.8609876515204e-03
-6.0364646608395e-03
-1.6598457634395e-17
 5.8089519522700e-18
 3.8592515142800e-17
 1.6646725801646e-02
-2.1633527819763e-02
 8.0281271136731e-03
-9.7935840391088e-03
 9.3256416798084e-03
-1.0916692374555e-02
 4.4942252890170e-03
-4.9131199935495e-03
 2.1938153333886e-17
-3.6625704639276e-18
-1.8392473416680e-17
 1.5673713429869e-02
-1.7679415363260e-02
 7.6308092675175e-03
-7.9305900745226e-03
 8.7326617221208e-03
-8.8571871324783e-03
 4.2358391809447e-03
-3.9675423265741e-03
-1.1885566315872e-17
-1.9197154716571e-17
 2.0582900618280e-19
 1.5075923413297e-02
-1.3997549141163e-02
 7.4247494039039e-03
-6.0831679106386e-03
 8.3352739576838e-03
-7.0055150761810e-03
 4.0890285820172e-03
-3.0480670293294e-03
-2.1568846968884e-17
 1.4638423394449e-17
 6.8440262138147e-19
 1.4775566354118e-02
-1.0234948592530e-02
 7.3401565845996e-03
-4.1533558900255e-03
 8.1177856408132e-03
-5.1320611699279e-03
 4.0207607677285e-03
-2.0855158282433e-03
 1.6949976307506e-17
 3.9573379295721e-18
 7.2730484015990e-18
 1.4680516084780e-02
-6.2925738713364e-03
 7.3392019153236e-03
-2.1369120180594e-03
 8.0317572161022e-03
-3.1565730478453e-03
 4.0069504195550e-03
-1.0695887691608e-03
 1.1728865220630e-17
-1.1904201040712e-17
 1.8592584950469e-17
 1.4754801169472e-02
-2.2070558627156e-03
 7.4197973300694e-03
-6.9570440857092e-05
 8.0502051961773e-03
-1.0875603661049e-03
 4.0420952925260e-03
-1.7329324371929e-05
-1.4092510659943e-17
 4.0225594665107e-18
 1.9606695146569e-17
 1.5012476337258e-02
 1.9337636311683e-03
 7.5989658088198e-03
 1.9997332456043e-03
 8.1742588330869e-03
 1.0295151650788e-03
 4.1330097263366e-03
 1.0445011595923e-03
-1.5866621167968e-17
 5.8801027198393e-18
 6.5928809449538e-18
 1.5489552756533e-02
 6.0233763297255e-03
 7.8973011892107e-03
 4.0144143391458e-03
 8.4206535777653e-03
 3.1353643213765e-03
 4.2903570401123e-03
 2.0841751163747e-03
 1.8610160884124e-17
-7.5538398236139e-18
-5.5345132773596e-18
 1.6219404743515e-02
 9.9355807588690e-03
 8.3286865766103e-03
 5.9044686418517e-03
 8.8076564668995e-03
 5.1589509134562e-03
 4.5222634228921e-03
 3.0624539967619e-03
 1.0437987009015e-17
-3.4728350837426e-19
-9.0666406674100e-18
 1.7215076532526e-02
 1.3506642242156e-02
 8.8929051500812e-03
 7.5751018611996e-03
 9.3441063522803e-03
 7.0085603050736e-03
 4.8296092086027e-03
 3.9265756055471e-03
-3.7471890553583e-17
-1.0962300403365e-17
-1.3304346502523e-17
 1.8454691263265e-02
 1.6509882391663e-02
 9.5684585361942e-03
 8.8932633167218e-03
 1.0020508403059e-02
 8.5583504530107e-03
 5.2016919028208e-03
 4.6033268398897e-03
-6.4289800696601e-19
-7.8164200372627e-18
 1.1185493584967e-17
 1.9866474186294e-02
 1.8632759545706e-02
 1.0304056314355e-02
 9.6791661498656e-03
 1.0800334847886e-02
 9.6371070996692e-03
 5.6113514976896e-03
 4.9955966846511e-03
 2.0416882160618e-17
 2.2659825404947e-17
 6.4014514988744e-18
 2.1310217965240e-02
 1.9481113505557e-02
 1.1006110889340e-02
 9.7212697381721e-03
 1.1609550043687e-02
 1.0033702993617e-02
 6.0081425306109e-03
 4.9929531615529e-03
 4.0183243017744e-18
 1.2405644545486e-17
-3.5863374986747e-18
 2.2539245494251e-02
 1.8667342152329e-02
 1.1505270655267e-02
 8.8546897139281e-03
 1.2315798015550e-02
 9.5508390603691e-03
 6.3009367812317e-03
 4.5175468086320e-03
 3.0686309613129e-17
-1.2053278839429e-18
-1.3506787376917e-17
 2.3055132748226e-02
 1.6082845389430e-02
 1.1424572223291e-02
 7.1635072993672e-03
 1.2656757905745e-02
 8.1574937011257e-03
 6.2948393461912e-03
 3.6315913172693e-03
-2.3439095716421e-17
 6.5492587481703e-18
 5.7598240413292e-20
 2.1604093941265e-02
 1.2381277502693e-02
 9.8107720589500e-03
 5.2393121541670e-03
 1.2023094871886e-02
 6.2302157519725e-03
 5.5439831416617e-03
 2.6531762582937e-03
-5.7740541948431e-17
-5.6239599565897e-17
-1.9176825925837e-18
 1.5683543911027e-02
 8.9764888991653e-03
 5.3340450040995e-03
 3.7760653282532e-03
 9.3185020890374e-03
 4.4944924819990e-03
 3.5177960822974e-03
 1.9208720422768e-03
-5.9976708929182e-17
-7.4732022870352e-17
-1.1184223035546e-17
 6.2800149519555e-03
 5.9742141849348e-03
 2.3496296370569e-03
 1.9458601809959e-03
 5.1326638758091e-03
 2.9863162911896e-03
 2.1731486651841e-03
 1.0283155719755e-03
 1.9868004810797e-17
 5.4074583352715e-18
 2.2808903203664e-17
 5.6815610556837e-03
 1.5300744546547e-03
 4.2728265390437e-03
 7.7882270085539e-04
-2.3147716382566e-17
-4.9107582150015e-17
-3.3488294602646e-17
-5.9204186891884e-05
-9.1322809866720e-05
-9.2945114615051e-05
-1.6701675027764e-04
-6.1106622651463e-05
-3.9104055652658e-05
-9.1417789406467e-05
-7.0694239803021e-05
-5.4210108624275e-19
-1.4907779871676e-19
-3.1170812458958e-19
-4.4406479621403e-04
-9.5151887292545e-04
-3.8949759669837e-04
-8.2496718432168e-04
-3.7086110445994e-04
-3.8613194026915e-04
-2.9821562609578e-04
-3.2445995247488e-04
-5.1940060325634e-18
 1.0740377771184e-18
 4.4045713257224e-19
-8.7485479845956e-04
-2.8319397897269e-03
-4.6660143421850e-04
-2.1019224615287e-03
-6.6169941251504e-04
-1.0756322075969e-03
-3.5850253713099e-04
-7.7805535073265e-04
-1.2454772456427e-17
-3.4474240953250e-18
-1.0706496453294e-17
-2.1816994365792e-04
-6.6490829038909e-03
 2.4547126568453e-04
-4.7892840556003e-03
-3.5875688903264e-04
-2.4869406296490e-03
-2.2150736378457e-07
-1.7989519018375e-03
-2.3987973066242e-18
 1.7841902000965e-17
-8.7346037520863e-18
 2.1319198274214e-03
-1.3965728567670e-02
 1.7688412188359e-03
-9.5849861574404e-03
 8.2269886182740e-04
-5.4715790387185e-03
 7.7259917017214e-04
-3.8545232573309e-03
-4.0142585436276e-17
 4.6485168145316e-18
 2.6156377411213e-17
 6.1391180625421e-03
-2.4930876167348e-02
 4.1488393969968e-03
-1.5706463407444e-02
 2.8233504265582e-03
-1.0517194467468e-02
 1.9450751402967e-03
-6.8721469764050e-03
-2.0843786766034e-17
-5.8004816227975e-18
-1.4677386910023e-17
 1.1593047457432e-02
-3.6228869740655e-02
 7.2153810792910e-03
-2.0447824576053e-02
 5.5644216478452e-03
-1.6516363049106e-02
 3.5035213924486e-03
-9.6950416097275e-03
-1.2820690689641e-17
-2.6312231473508e-17
-9.1411795667684e-18
 1.7303153686040e-02
-4.2492450258388e-02
 1.0013994241277e-02
-2.1484565962684e-02
 8.6212129119865e-03
-2.0741353379438e-02
 5.0748270705734e-03
-1.0840316520389e-02
-6.1209988900385e-17
 2.3174821436878e-17
-3.9437854024160e-18
 2.1386029276670e-02
-4.1299852511540e-02
 1.1530628741033e-02
-1.9204666954437e-02
 1.1085599480420e-02
-2.1179103812530e-02
 6.0834932130938e-03
-1.0028112423929e-02
-3.9817324784530e-17
 2.0111950299606e-17
-6.9998802761095e-18
 2.2871273352098e-02
-3.5207303331916e-02
 1.1625405153263e-02
-1.5694418373400e-02
 1.2262141824486e-02
-1.8473732728336e-02
 6.3218648737973e-03
-8.2345145834566e-03
 5.2244992186645e-17
 3.5236570605779e-17
 2.6698478497456e-18
 2.2286733197090e-02
-2.8233159457108e-02
 1.0900733987636e-02
-1.2508361910555e-02
 1.2217733715701e-02
-1.4759350291175e-02
 6.0294037170685e-03
-6.4612147522478e-03
 7.8042227628222e-17
 1.5531196120855e-17
 1.3644006714372e-17
 2.0807148439070e-02
-2.2458846614983e-02
 1.0022823995836e-02
-1.0027766117474e-02
 1.1508181098094e-02
-1.1518733716972e-02
 5.5576256677927e-03
-5.0768602576010e-03
 4.5356920259573e-17
-2.2395551125404e-18
-3.8616232065324e-18
 1.9341796578369e-02
-1.7957975196735e-02
 9.3407747979459e-03
-8.0062264424328e-03
 1.0666618997995e-02
-9.0408997687457e-03
 5.1366303441256e-03
-4.0018771376822e-03
-3.4172697224027e-17
 2.6220751915204e-17
 4.9907181252223e-18
 1.8273044411247e-02
-1.4083740324809e-02
 8.9163631576719e-03
-6.1215569904789e-03
 9.9804544214521e-03
-7.0225522637106e-03
 4.8442799472994e-03
-3.0486606465843e-03
-3.5900644436426e-17
 3.4765620287105e-17
 8.0688358555445e-18
 1.7626355808488e-02
-1.0289001899734e-02
 8.6923101061191e-03
-4.1849744901086e-03
 9.5237392143801e-03
-5.1215485584406e-03
 4.6721410429953e-03
-2.0868315119706e-03
-3.4728350837426e-18
 5.3871295445374e-18
-8.3619092552944e-18
 1.7309957067466e-02
-6.3198703018497e-03
 8.6096465062899e-03
-2.1391033236853e-03
 9.2701985525636e-03
-3.1473946043048e-03
 4.5916757901576e-03
-1.0652695893878e-03
-3.7865760874056e-17
 4.8280877993495e-18
 4.0637252677472e-17
 1.7254263418740e-02
-2.1395834692672e-03
 8.6454819509325e-03
-1.6122920385442e-06
 9.1808063106385e-03
-1.0483073301231e-03
 4.5857683399877e-03
 1.5540510219125e-05
-1.0203358882625e-17
 2.1751806085490e-17
-2.0589253365384e-18
 1.7446522828205e-02
 2.1788878068989e-03
 8.8070517738010e-03
 2.1765361514881e-03
 9.2392747454397e-03
 1.1483756499375e-03
 4.6530539567371e-03
 1.1301808379436e-03
 1.3868893961868e-17
 7.9756622313465e-18
 6.6771607232057e-18
 1.7913229477468e-02
 6.5139088834520e-03
 9.1144653865602e-03
 4.3272538112902e-03
 9.4520505487878e-03
 3.3781181930748e-03
 4.8012625887743e-03
 2.2410018874428e-03
-6.0753438141815e-18
-1.2659754429663e-17
 3.4707175013745e-18
 1.8691056706903e-02
 1.0709866774601e-02
 9.5856914185259e-03
 6.3636901188318e-03
 9.8352448761005e-03
 5.5539280366355e-03
 5.0391968783217e-03
 3.2993901889142e-03
-2.5896761812879e-17
-1.6652667743020e-18
 1.9087463949902e-17
 1.9801631382848e-02
 1.4563700073459e-02
 1.0225275574704e-02
 8.1691522100371e-03
 1.0400664735485e-02
 7.5624111327606e-03
 5.3701062092895e-03
 4.2407268958122e-03
 2.1523107189732e-17
-6.6288798452121e-18
 1.5253369314155e-17
 2.1230818182920e-02
 1.7799175491584e-02
 1.1014517342305e-02
 9.5833802275465e-03
 1.1143926113014e-02
 9.2513257892160e-03
 5.7860557852578e-03
 4.9776820723597e-03
 1.0668379970668e-17
-1.4636729328554e-18
 2.2775021885774e-17
 2.2909093779731e-02
 2.0046171912227e-02
 1.1900658918228e-02
 1.0396903987839e-02
 1.2033650803119e-02
 1.0419786638565e-02
 6.2620873148891e-03
 5.3984195968582e-03
 7.7008000399625e-18
 5.6835910760764e-18
 1.2264825318006e-17
 2.4688254500059e-02
 2.0858518812106e-02
 1.2781133970851e-02
 1.0377234603396e-02
 1.2999061659940e-02
 1.0830607412098e-02
 6.7480424187156e-03
 5.3829199118720e-03
-2.1374029391015e-17
 2.8107094288739e-17
 1.9665563936403e-17
 2.6298434017635e-02
 1.9838478284844e-02
 1.3468050648281e-02
 9.3724353474514e-03
 1.3907664858294e-02
 1.0281723561318e-02
 7.1507327889044e-03
 4.8604970450885e-03
 7.1726749973494e-18
 1.9582554707572e-17
-1.4538473506673e-17
 2.7218213064923e-02
 1.6962625193833e-02
 1.3583050396540e-02
 7.5365883115381e-03
 1.4504047100918e-02
 8.7814516871771e-03
 7.2858290497413e-03
 3.9250489518885e-03
 3.2844549562733e-17
 8.1315162936413e-20
 3.4897757426877e-18
 2.6310760918751e-02
 1.3045469669084e-02
 1.2330514470719e-02
 5.5331659321425e-03
 1.4258161532261e-02
 6.7717097319426e-03
 6.7917171600591e-03
 2.9214332260263e-03
-5.5158785525200e-18
 6.9524464310633e-18
-2.4665599424045e-18
 2.1647832994125e-02
 9.5321890320355e-03
 8.8377916877156e-03
 4.0072920966558e-03
 1.2332357721441e-02
 4.9747266748006e-03
 5.3175179127036e-03
 2.1591343644154e-03
-5.7754094475587e-17
-1.7869007055277e-17
 1.1248597539537e-18
 1.4338175906359e-02
 6.3724874739437e-03
 6.7782175196545e-03
 2.0633733628408e-03
 9.2568990134580e-03
 3.3611015376227e-03
 4.3500364497033e-03
 1.2113455084126e-03
-4.1443628043258e-17
 4.8070813822576e-17
-9.1615083575025e-18
 1.1366150567480e-02
 1.6388373448501e-03
 7.2345760405277e-03
 9.1739547875669e-04
 3.0818446752901e-17
-1.1647041837925e-16
 1.6723818510589e-17
-1.3102105505897e-04
-6.7970290699160e-05
-1.9731738843881e-04
-1.2305473539231e-04
-6.3987376867747e-05
-2.9287865046634e-05
-9.8228171105497e-05
-5.2928071430647e-05
 1.3078188705606e-18
 1.0977546996416e-18
 5.8953493128899e-19
-8.2357975127256e-04
-6.4391669747255e-04
-6.5338828964157e-04
-5.2935269508647e-04
-4.2042272566078e-04
-2.6296759085942e-04
-3.3639365933902e-04
-2.0727749353383e-04
 2.5241581828178e-19
-2.1108061045577e-18
 2.8138434507788e-18
-1.5204982738432e-03
-1.6661747035266e-03
-8.4027092512795e-04
-1.1697790377347e-03
-7.9560227920528e-04
-6.0168432358998e-04
-4.5077028107676e-04
-3.9476827195162e-04
-2.1141942363467e-18
-7.3471637844838e-18
 1.8634724839595e-19
-1.1216697677112e-03
-3.6814921815292e-03
-2.4450639054074e-04
-2.6545815910379e-03
-6.5676400921522e-04
-1.2092229875643e-03
-1.8859713422503e-04
-8.5538572861887e-04
 1.0238934266410e-17
-1.4402948235112e-17
 7.2167207106066e-18
 9.5147594735123e-04
-8.2618267036031e-03
 1.1565046295035e-03
-5.9377314389200e-03
 3.0192990879563e-04
-2.8067668751504e-03
 4.8073846975028e-04
-2.0759462870168e-03
 3.1523178165016e-17
 1.3972655497907e-17
 2.0328790734103e-17
 4.6981012325287e-03
-1.6769349873190e-02
 3.3886964282139e-03
-1.1316388800760e-02
 2.0791309438923e-03
-6.2870721610606e-03
 1.5375164671756e-03
-4.4409323394783e-03
 6.6407383064737e-18
-3.5683804001929e-17
 1.9149720871525e-17
 1.0208755263213e-02
-2.8163411558740e-02
 6.5775664641545e-03
-1.7185555579092e-02
 4.6956175513966e-03
-1.1748890053188e-02
 3.0516620939376e-03
-7.5460047688045e-03
-2.6562953225895e-18
-1.7902888373167e-17
-5.2177229550865e-18
 1.6909986758131e-02
-3.8026811680324e-02
 1.0127481941727e-02
-2.0660477761581e-02
 8.0219291903631e-03
-1.7497950851974e-02
 4.8712537455504e-03
-9.9913299505472e-03
-8.4567769453869e-18
 6.0783084294969e-18
 6.4001809494535e-18
 2.2910877222919e-02
-4.1621650895257e-02
 1.2780872683357e-02
-2.0323209848613e-02
 1.1333922763974e-02
-2.0766068060677e-02
 6.4394244651229e-03
-1.0534516692916e-02
-2.7999521104438e-17
 3.0601606318403e-17
 2.6610387070941e-17
 2.6344686548383e-02
-3.8299677519630e-02
 1.3779473533041e-02
-1.7352077926418e-02
 1.3610474137945e-02
-2.0193414816611e-02
 7.2391165233476e-03
-9.3096128854784e-03
 4.0332320816461e-17
-9.4596639549360e-18
 4.7067926813027e-17
 2.6880741622375e-02
-3.1406807806284e-02
 1.3390212115817e-02
-1.3751590830701e-02
 1.4370456968166e-02
-1.6930345618153e-02
 7.2480019331884e-03
-7.3760349454126e-03
-9.7713720795256e-18
 3.2092384305571e-17
 1.0523537336687e-16
 2.5538724643689e-02
-2.4442171015869e-02
 1.2365912239005e-02
-1.0660186188275e-02
 1.3932023245090e-02
-1.3039222476160e-02
 6.7940937422914e-03
-5.5809832178824e-03
-1.4108180769468e-17
 1.5280474368468e-17
 1.5331296345303e-17
 2.3579361765490e-02
-1.8807779573540e-02
 1.1315823665709e-02
-8.2237290737268e-03
 1.2937178502746e-02
-9.7398735444358e-03
 6.2149591860656e-03
-4.1763507398560e-03
-3.0603723900771e-17
 2.3954091748352e-18
-1.5992193802398e-17
 2.1805449859452e-02
-1.4303852892164e-02
 1.0511130414418e-02
-6.1581842793146e-03
 1.1890161565823e-02
-7.1873533892346e-03
 5.7077553198255e-03
-3.0566497600120e-03
-9.9340024053984e-18
-7.3082002689101e-18
-1.0286368111456e-17
 2.0508966272347e-02
-1.0281310505771e-02
 9.9870628021899e-03
-4.1719563444005e-03
 1.1038537475280e-02
-5.0613848094725e-03
 5.3389616235240e-03
-2.0431308888913e-03
 8.9243391322713e-18
-2.3354392421696e-17
 5.2929394808027e-17
 1.9694553606763e-02
-6.2540394288835e-03
 9.6943317078271e-03
-2.1054971714065e-03
 1.0446697187859e-02
-3.0334528168903e-03
 5.1061519761166e-03
-1.0137811382247e-03
 2.5587171270658e-17
-1.0774259089075e-17
-4.2131418796429e-18
 1.9287814207873e-02
-2.0137652198056e-03
 9.5881800639126e-03
 8.1397777712766e-05
 1.0099113639413e-02
-9.2224035241140e-04
 4.9898303289897e-03
 7.9009975635813e-05
 9.7984771338377e-18
 1.4267422963551e-17
 2.7278696066325e-17
 1.9239265351205e-02
 2.4459446113578e-03
 9.6537120486340e-03
 2.3567635550847e-03
 9.9689531206906e-03
 1.3176755443651e-03
 4.9776990703965e-03
 1.2305168983424e-03
-4.0996394647108e-18
 9.7154679050068e-18
 1.6702642686907e-17
 1.9544812698676e-02
 7.0174852038498e-03
 9.8989063897761e-03
 4.6485677119961e-03
 1.0044877967296e-02
 3.6455932437003e-03
 5.0685007516726e-03
 2.4055812647514e-03
-1.2721587834812e-17
-6.4645554534448e-18
 2.5495691712354e-17
 2.0227449255742e-02
 1.1523968310685e-02
 1.0339112347449e-02
 6.8543558922656e-03
 1.0331070336065e-02
 5.9696228438941e-03
 5.2670397498957e-03
 3.5487854423248e-03
 1.9124309883108e-17
-3.1679032227311e-18
 3.4067453380331e-17
 2.1310178188095e-02
 1.5723199319878e-02
 1.0982787880626e-02
 8.8353609861826e-03
 1.0836738325736e-02
 8.1578163211480e-03
 5.5775507122977e-03
 4.5845362066927e-03
-4.9021184789395e-17
 1.4535085374884e-18
 1.5390588651611e-18
 2.2791514086579e-02
 1.9289444837090e-02
 1.1819765944237e-02
 1.0405053713512e-02
 1.1564403251768e-02
 1.0033733916864e-02
 5.9979213341581e-03
 5.4129547496835e-03
 4.1419911120735e-17
 2.6278350155617e-17
-1.7730093651927e-17
 2.4624162754569e-02
 2.1798349008447e-02
 1.2809935666282e-02
 1.1327030215398e-02
 1.2499674796551e-02
 1.1371411383729e-02
 6.5144996524484e-03
 5.9104410438628e-03
 5.5658534964080e-18
-1.1890648513556e-17
-4.6358113203228e-18
 2.6691844357168e-02
 2.2758042502339e-02
 1.3867674000067e-02
 1.1350863165269e-02
 1.3600467140705e-02
 1.1913904889875e-02
 7.0949222857157e-03
 5.9501898288907e-03
 1.0648898212881e-17
 3.2372752211112e-17
-9.9323083395039e-18
 2.8768227247490e-02
 2.1762499914556e-02
 1.4829784544346e-02
 1.0333585723842e-02
 1.4776876579592e-02
 1.1455063995253e-02
 7.6717421943497e-03
 5.4656424184785e-03
 2.2192263218063e-17
 2.0499891389449e-17
-1.2668224759135e-17
 3.0405160115707e-02
 1.8846949310850e-02
 1.5373846165530e-02
 8.4715535367863e-03
 1.5837041027126e-02
 1.0020405078945e-02
 8.1018701121387e-03
 4.5640979710102e-03
 1.9461428996115e-17
 2.1785687403381e-18
-1.2271813339820e-17
 3.0656971140947e-02
 1.4904488149976e-02
 1.4867156725832e-02
 6.4472450460080e-03
 1.6362271654572e-02
 8.0606346438599e-03
 8.1007146850372e-03
 3.5864189815618e-03
 2.1914436411363e-17
 3.2661590446126e-18
 1.4365678785433e-17
 2.8009162106670e-02
 1.1318631442397e-02
 1.2696189295387e-02
 4.8258636830560e-03
 1.5680724765801e-02
 6.2350056142200e-03
 7.3905978485111e-03
 2.7895737987587e-03
 5.1872297689853e-17
-4.0826988057657e-17
-1.5341460740670e-17
 2.3194086782399e-02
 7.7923882102358e-03
 1.1685074871764e-02
 2.5403730136198e-03
 1.4019986657328e-02
 4.4038104400164e-03
 6.8625038978416e-03
 1.6981022495539e-03
-3.6971294081756e-17
-2.4170932182849e-17
 1.1492543028346e-17
 1.7861035120068e-02
 2.0563370390976e-03
 1.0903724137030e-02
 1.2949428454601e-03
 1.3091741232763e-16
 1.7475983767751e-16
 2.4340338772300e-17
-9.3320845434786e-05
-5.0564272612241e-05
-1.4925709794014e-04
-9.1682374865343e-05
-2.7063246991421e-05
-2.1629237950349e-05
-4.7565589130438e-05
-3.9780017855540e-05
 1.6195269951502e-18
-4.5739779151732e-20
-4.1674021004912e-19
-6.9749729449725e-04
-4.4109899924849e-04
-5.7197946579213e-04
-3.4162633109647e-04
-2.6279115943284e-04
-1.8326698692586e-04
-2.2715671099505e-04
-1.3732461937321e-04
 1.3213713977167e-19
-1.1146953585867e-18
 1.1705995331054e-18
-1.4195216081785e-03
-9.1426311343656e-04
-8.2396995781098e-04
-5.6480375373269e-04
-5.9118957531101e-04
-3.2562217417120e-04
-3.5660106599722e-04
-1.7545460655166e-04
 5.0906680129983e-18
 4.2182240773264e-19
 6.2849844686269e-19
-1.3130893362996e-03
-1.6200841956893e-03
-4.3638991070993e-04
-1.1126622164910e-03
-5.9379816400806e-04
-4.3014961031512e-04
-2.1498590578139e-04
-2.6210059307463e-04
-9.9102854828753e-18
 2.2022856628612e-18
-4.0996394647108e-18
 2.1784339452358e-04
-3.7480011257124e-03
 6.7725251552986e-04
-2.8298269427420e-03
 4.0876003256862e-05
-9.5478908727248e-04
 2.7137053707671e-04
-7.4896714244776e-04
-1.3816801435612e-17
 1.5212711732687e-17
-2.0193265462543e-18
 3.2176350022874e-03
-9.0270883264004e-03
 2.4832386441073e-03
-6.5968131637311e-03
 1.3728894717957e-03
-2.7324541193740e-03
 1.0850162900695e-03
-2.1344778311907e-03
-4.0386530925085e-18
-7.3048121371211e-18
 1.0909784360635e-17
 7.8821092520402e-03
-1.8298555786219e-02
 5.2367719193560e-03
-1.2232267999832e-02
 3.4674301542559e-03
-6.5440753828995e-03
 2.3199706279815e-03
-4.6739287885162e-03
-1.5368565794982e-17
-1.4799359654427e-17
-7.6571778431789e-18
 1.4421523447735e-02
-2.9579025295365e-02
 8.9456640195346e-03
-1.7678427623478e-02
 6.4715913661377e-03
-1.2164862722784e-02
 4.0572232952170e-03
-7.7665604441233e-03
-2.6454533008646e-17
 5.5497598704102e-17
-2.8785567679490e-17
 2.1795449459617e-02
-3.8173271994733e-02
 1.2675059051673e-02
-2.0284796128283e-02
 1.0136864613354e-02
-1.7678680176912e-02
 6.0053938252249e-03
-9.9881824345882e-03
-3.2092384305571e-17
 5.2854855908668e-17
 2.4875663594964e-17
 2.7752708652009e-02
-4.0204543221154e-02
 1.5117491980188e-02
-1.9260745402502e-02
 1.3553288564683e-02
-2.0500683817448e-02
 7.5362841088946e-03
-1.0284912183772e-02
 3.1807781235293e-17
 3.6049722235143e-18
 5.9414279052206e-17
 3.0639683762379e-02
-3.5908991154784e-02
 1.5754698120034e-02
-1.5992543170015e-02
 1.5699465675937e-02
-1.9581959014598e-02
 8.2086295311781e-03
-8.9074626772447e-03
 7.0852611971928e-17
-4.5509386190079e-17
 9.9211275046002e-17
 3.0527507232399e-02
-2.8611807650486e-02
 1.5047436305599e-02
-1.2270014577815e-02
 1.6222223948930e-02
-1.6083515511807e-02
 8.0868469258810e-03
-6.8552953069094e-03
-3.9614036877189e-17
 1.0354130747237e-17
 1.2698717945236e-17
 2.8620231089430e-02
-2.1375443256592e-02
 1.3772974015640e-02
-9.0383070647135e-03
 1.5528209258875e-02
-1.1908136376489e-02
 7.5173463648586e-03
-4.9064805628678e-03
-2.4042183174866e-17
 9.1140745124563e-18
 5.8560469841373e-17
 2.6170615380924e-02
-1.5387541956280e-02
 1.2498097786727e-02
-6.4109377258745e-03
 1.4277499363935e-02
-8.2367481420833e-03
 6.8212388115860e-03
-3.3202109615758e-03
-4.4520051707686e-17
 5.8614679949998e-18
-1.0208864596782e-18
 2.3944701288716e-02
-1.0470204152677e-02
 1.1477207297567e-02
-4.1396561168838e-03
 1.2970235548565e-02
-5.3019530373057e-03
 6.1874875755734e-03
-2.0294483344241e-03
 2.0848868963717e-17
 3.0771012907854e-17
 6.2511031507367e-19
 2.2240095565181e-02
-6.0399082921041e-03
 1.0762270011189e-02
-1.9587696894234e-03
 1.1861367371935e-02
-2.8528489746487e-03
 5.6929531674275e-03
-8.7716749150246e-04
 3.4321775022744e-18
-5.3668007538033e-18
-3.9132922163149e-18
 2.1096797168633e-02
-1.6373621032795e-03
 1.0327974002981e-02
 2.8672745960989e-04
 1.1037898567253e-02
-5.7620958005500e-04
 5.3525510627583e-03
 2.5975557463731e-04
 3.4199802278340e-17
-3.2983462966082e-17
-1.2381927622963e-17
 2.0473565000909e-02
 2.9450935128370e-03
 1.0143641480701e-02
 2.6371638570026e-03
 1.0508997021972e-02
 1.7261531381967e-03
 5.1594180943120e-03
 1.4380655460382e-03
-7.2556842261803e-18
 1.0669227003615e-17
 1.2882524094791e-17
 2.0335538146516e-02
 7.7055911488495e-03
 1.0196443616962e-02
 5.0499352239513e-03
 1.0262941827570e-02
 4.1159603912284e-03
 5.1058656859677e-03
 2.6563029958808e-03
-6.6090592742464e-17
-6.0647559023408e-19
-1.0833551395382e-18
 2.0675827201110e-02
 1.2497749126244e-02
 1.0489082258754e-02
 7.4241906062298e-03
 1.0292107134056e-02
 6.5486685868621e-03
 5.1897330833235e-03
 3.8705385618716e-03
-1.1526424346237e-17
 8.3009228830921e-18
-3.7798845271223e-18
 2.1506035213315e-02
 1.7066624325430e-02
 1.1029746404760e-02
 9.6087810704191e-03
 1.0598645968557e-02
 8.9030717827268e-03
 5.4139291703397e-03
 5.0045018855975e-03
 7.8350547621023e-18
-1.4060746924421e-17
-2.5984429722920e-17
 2.2839659022147e-02
 2.1054928515055e-02
 1.1822864429204e-02
 1.1400099776864e-02
 1.1192866440147e-02
 1.0996829309750e-02
 5.7848595427270e-03
 5.9537471806941e-03
 1.2104524332738e-17
 7.9282283863002e-18
-3.3512435041643e-17
 2.4678801953606e-02
 2.4004459955480e-02
 1.2862247195294e-02
 1.2546591072741e-02
 1.2091567920152e-02
 1.2595840450340e-02
 6.3119628822745e-03
 6.5915461104229e-03
 3.4618236554283e-17
-1.1485766764768e-18
-3.0577889395880e-19
 2.7002319291594e-02
 2.5400726311677e-02
 1.4121989977388e-02
 1.2790485883844e-02
 1.3316594428282e-02
 1.3440686166733e-02
 7.0058675610447e-03
 6.7916739964407e-03
-1.5988593912372e-17
-1.0091550533588e-17
-5.5497598704102e-18
 2.9734613291240e-02
 2.4836877318475e-02
 1.5529424532547e-02
 1.1991327620976e-02
 1.4881777603460e-02
 1.3327122638487e-02
 7.8642217662299e-03
 6.4888108242540e-03
-6.6407383064737e-18
-1.7603038709839e-17
-1.5497314802965e-17
 3.2634765449614e-02
 2.2357617831267e-02
 1.6883587672935e-02
 1.0340290679704e-02
 1.6735302997084e-02
 1.2267069807576e-02
 8.8242265326208e-03
 5.7778613228994e-03
-3.0764236644276e-17
-1.5185606678375e-17
-3.8353651851675e-18
 3.5020252804009e-02
 1.8802756847247e-02
 1.7704960289275e-02
 8.4544828299080e-03
 1.8613381713690e-02
 1.0636656182395e-02
 9.6755362458012e-03
 4.9492670233491e-03
 3.1997516615478e-17
-4.2690460541617e-17
-4.8246996675605e-18
 3.5610756391905e-02
 1.5326035848964e-02
 1.7453635283943e-02
 6.7340856468139e-03
 1.9929757362258e-02
 8.9134071094099e-03
 1.0114581873164e-02
 4.1410483030511e-03
-1.5097515251861e-17
 4.2656579223727e-18
-2.5749801596531e-19
 3.4262910751736e-02
 1.1105464081937e-02
 1.7983665511518e-02
 3.6655146861229e-03
 2.0341440260397e-02
 6.6858180948293e-03
 1.0263196021201e-02
 2.7800668909261e-03
 3.6293667723952e-17
-9.1682846210806e-17
-1.4779030863693e-17
 2.6626217128730e-02
 3.0326194357761e-03
 1.6277926111223e-02
 2.1145648852148e-03
-5.5619571448506e-17
-4.4154133474472e-17
-5.5971937154564e-17
-1.5642603188759e-05
-3.6881116072807e-05
-3.9848063082715e-05
-6.8232585321404e-05
 1.1103712574290e-05
-1.5546185870741e-05
 8.0579243091350e-06
-2.9471098188516e-05
-7.1828393927165e-19
-1.3078188705606e-18
-9.0124305587858e-19
-3.1580149018207e-04
-3.1020304916080e-04
-2.9753926863518e-04
-2.3137934183914e-04
-5.4068534113938e-05
-1.3095750744838e-04
-7.1653737224064e-05
-9.7098345168245e-05
 8.1992789294216e-19
-1.3366179907673e-18
-2.2429432443294e-18
-8.3838652114987e-04
-5.0318973377644e-04
-5.2663502223454e-04
-2.4622568255284e-04
-2.4384466841809e-04
-1.8941047135476e-04
-1.6815917705704e-04
-7.7120423098043e-05
-6.7762635780344e-19
 1.7084654546119e-18
-1.7821573210230e-18
-9.1866678955177e-04
-4.7915558977768e-04
-3.4660873567244e-04
-2.3927307501426e-04
-3.0702081367107e-04
-7.1357189126653e-05
-1.2124708641759e-04
 1.2251424038934e-05
-1.9888333601531e-18
 1.9176825925837e-18
-1.8770250111155e-18
 1.2244744476697e-05
-9.2155126775423e-04
 4.0679366865259e-04
-7.6297577942697e-04
 2.3517563925601e-05
 6.0356388664334e-06
 1.6733241340128e-04
-2.1894975225756e-05
 2.6359665318554e-18
 1.6093625997832e-18
 9.8560753742510e-18
 2.0828935190107e-03
-3.2243914948384e-03
 1.6872776149181e-03
-2.6843278391708e-03
 8.5284344625958e-04
-4.9387289241951e-04
 6.9541494160497e-04
-5.3430726245574e-04
-3.2729353081906e-17
 4.8653572490287e-18
 1.6059744679941e-18
 5.3855598441135e-03
-8.9512212860655e-03
 3.6450733695291e-03
-6.6886165822853e-03
 2.2236739368449e-03
-2.3447149147879e-03
 1.5097365303673e-03
-1.9629356138142e-03
 5.9061913346148e-17
 1.2685165418080e-17
-1.3430554411664e-17
 1.0442940354610e-02
-1.8447233749700e-02
 6.6555737547067e-03
-1.2301196424760e-02
 4.3588454271095e-03
-6.1815703681507e-03
 2.7955615013515e-03
-4.4877641322378e-03
-3.0249240612346e-17
 3.6591823321386e-18
 4.4994390158148e-18
 1.7460577998747e-02
-2.9390719279753e-02
 1.0591221513459e-02
-1.7451107490839e-02
 7.4806493993176e-03
-1.1704667826305e-02
 4.6157591125997e-03
-7.5308288953910e-03
 3.7676025493871e-18
-6.3696877633523e-18
-1.2793585635329e-17
 2.5151180415477e-02
-3.7392642890620e-02
 1.4400279224011e-02
-1.9806126165225e-02
 1.1282986785922e-02
-1.7157458383042e-02
 6.6241930139155e-03
-9.7980908006150e-03
-8.6744644128313e-17
-1.1811027416514e-17
 1.4667222514655e-17
 3.1182562386668e-02
-3.9133835585056e-02
 1.6816959690420e-02
-1.8735625847235e-02
 1.4816029084116e-02
-2.0196047490125e-02
 8.1927241668955e-03
-1.0272321076853e-02
 6.6217647684552e-17
-5.5023260253639e-18
-3.1374100366299e-18
 3.3989166789043e-02
-3.4834031086231e-02
 1.7385864686632e-02
-1.5425116948499e-02
 1.7064179381890e-02
-1.9680873381161e-02
 8.8954380605841e-03
-9.0322765029587e-03
 1.5937771935537e-17
 3.0818446752901e-17
 5.8973821919633e-17
 3.3690111415742e-02
-2.7315580097226e-02
 1.6560764714132e-02
-1.1453252603154e-02
 1.7645749333653e-02
-1.6350862243417e-02
 8.7756966132506e-03
-6.9007104593268e-03
-2.3947315484774e-17
-1.1194387430913e-17
-1.2698717945236e-17
 3.1457503921089e-02
-1.9377214612215e-02
 1.5091128759817e-02
-7.7702001343880e-03
 1.6904429311637e-02
-1.1833253675337e-02
 8.1548644436165e-03
-4.6499795498658e-03
 1.3437330675242e-17
 1.1438332919722e-17
-6.9771797931231e-17
 2.8529305324950e-02
-1.2375119667190e-02
 1.3547265705142e-02
-4.6214281397070e-03
 1.5475935231720e-02
-7.4139639626032e-03
 7.3516130093996e-03
-2.6542147565358e-03
 7.9770174840621e-17
-2.4956978757901e-17
 2.3515328681674e-17
 2.5722340066403e-02
-6.4245317715148e-03
 1.2221617794873e-02
-1.8755640620327e-03
 1.3891272193014e-02
-3.6141883783762e-03
 6.5705084685650e-03
-9.6683604022374e-04
-1.7028750371601e-17
-3.5914196963582e-19
 5.0183313993028e-17
 2.3422743487276e-02
-1.1218031905464e-03
 1.1215350440956e-02
 6.8410679330810e-04
 1.2458512772248e-02
-4.1017757690520e-04
 5.9131286560490e-03
 5.0110879641885e-04
 5.2990381180229e-18
-5.0821976835258e-18
 1.0122043719689e-17
 2.1753405378946e-02
 3.9489229864085e-03
 1.0541451099930e-02
 3.2134475051819e-03
 1.1314864152624e-02
 2.4208550958837e-03
 5.4191071529477e-03
 1.8571972345089e-03
 2.8318005492606e-17
 1.4704491964335e-17
-1.6449379835678e-18
 2.0726855216347e-02
 9.0171705711164e-03
 1.0189041913890e-02
 5.7665941195353e-03
 1.0507950800651e-02
 5.0822695719930e-03
 5.0998107868558e-03
 3.1709661122985e-03
-2.3039296165317e-17
-1.5795470400398e-17
 1.7906276504956e-17
 2.0332713051713e-02
 1.4099789851329e-02
 1.0151585529196e-02
 8.3015391255188e-03
 1.0052252313749e-02
 7.6741814024357e-03
 4.9588997853238e-03
 4.4579816654089e-03
-8.8430239693349e-19
 4.3693347551166e-17
-9.3038098926412e-18
 2.0574974589386e-02
 1.9030666786700e-02
 1.0435945820160e-02
 1.0695918434109e-02
 9.9601577869208e-03
 1.0181940476143e-02
 5.0038297022415e-03
 5.6820721859907e-03
-1.5236428655210e-17
-1.3552527156069e-17
-1.4992906682875e-17
 2.1487727206031e-02
 2.3494897745352e-02
 1.1066896967766e-02
 1.2761375107132e-02
 1.0260817076777e-02
 1.2491904250099e-02
 5.2546000553111e-03
 6.7647342973647e-03
-2.2387080795931e-18
 2.1263915107872e-17
-4.4653882913352e-17
 2.3150731789535e-02
 2.7064174047879e-02
 1.2094820161413e-02
 1.4263258578740e-02
 1.1018410197227e-02
 1.4418919778842e-02
 5.7546024280173e-03
 7.6009043681733e-03
-1.0316861297557e-17
-1.5212711732687e-18
 2.5502467975932e-17
 2.5709540667457e-02
 2.9264495849224e-02
 1.3603429012518e-02
 1.4968166368742e-02
 1.2353630619071e-02
 1.5750849352175e-02
 6.5822650085154e-03
 8.0876802410277e-03
-1.7279472123988e-19
-1.9400442623913e-17
 2.0723508087524e-17
 2.9372429571110e-02
 2.9732793073172e-02
 1.5693384877769e-02
 1.4750192084556e-02
 1.4453525576592e-02
 1.6326424544325e-02
 7.8491605520474e-03
 8.1757418615700e-03
 2.5058622711571e-17
 8.8430239693349e-19
-1.0991099523572e-17
 3.4296506375523e-02
 2.8495107535917e-02
 1.8385429262926e-02
 1.3751460673221e-02
 1.7519868368444e-02
 1.6145128400468e-02
 9.6453597695838e-03
 7.9332246047414e-03
 1.8973538018496e-17
 2.0111950299606e-17
-1.3132398814231e-17
 4.0237508402726e-02
 2.6176787074847e-02
 2.1407252055212e-02
 1.2395535265389e-02
 2.1572766111245e-02
 1.5417184947206e-02
 1.1895895954505e-02
 7.5319630428217e-03
-2.9761349634727e-17
 1.4372455049011e-17
-1.8661829893907e-17
 4.6090382706599e-02
 2.3354885857139e-02
 2.4157261849137e-02
 1.0674524068578e-02
 2.6123325542066e-02
 1.4177150040225e-02
 1.4200756006299e-02
 6.8092888081286e-03
-1.0452386569118e-17
 2.0396553369884e-18
-1.9434323941803e-17
 5.0243955912319e-02
 1.7929239923490e-02
 2.7333105009084e-02
 5.9244521426001e-03
 2.9868949191133e-02
 1.1240163267034e-02
 1.5569502896905e-02
 5.0744405548516e-03
-1.8634724839595e-17
-9.7578195523695e-18
-2.2226144535953e-17
 4.0276473741572e-02
 5.0123185057860e-03
 2.5168438727427e-02
 3.7363460699815e-03
-2.8297676701872e-17
-2.3039296165317e-17
-5.8546917314217e-18
 4.1144238465796e-05
-2.6614311291362e-05
 4.5524148285458e-05
-5.0842159621922e-05
 2.9048310688395e-05
-1.1288273300880e-05
 3.6713384730769e-05
-2.2030183030264e-05
 1.3688052427629e-18
-1.7635225961834e-18
 5.6920614055489e-19
 3.6427299574537e-05
-2.2669763474403e-04
-2.5214930305856e-05
-1.6960620763662e-04
 8.3182895877165e-05
-9.8205646041960e-05
 4.0509220133877e-05
-7.4875185085199e-05
-6.0308745844506e-19
 1.3383120566618e-18
 3.1848438816762e-19
-1.8988207488724e-04
-3.1839180785653e-04
-1.5937137057248e-04
-1.2219216790044e-04
 4.0724447124774e-05
-1.3678140840701e-04
 1.0840828545966e-06
-4.9977735742335e-05
 5.0483163656356e-19
 1.4230153513872e-19
 3.3203691532369e-19
-3.0300099800451e-04
-3.7481281525364e-05
-1.1579363666173e-04
 9.8143362845526e-05
-6.6728718666198e-06
 1.6902771514587e-05
 1.8180878007534e-06
 7.5609288602951e-05
 1.8126505071242e-18
 1.1451885446878e-18
 3.7438856268640e-19
 1.3526672984932e-04
 3.2821659366344e-04
 2.9199010628972e-04
 2.0964453556438e-04
 1.1467863214243e-04
 2.9144281152937e-04
 1.2960320790900e-04
 2.1356117431770e-04
 3.3068166260808e-18
 2.7071172994247e-18
 5.0821976835258e-20
 1.3333970517024e-03
-3.9011763152463e-05
 1.0740341607447e-03
-3.3437428993199e-04
 5.2297412368674e-04
 4.1906118200230e-04
 4.0952775717162e-04
 1.8618063498788e-04
-1.8126505071242e-18
-1.0401564592283e-18
 1.4064135056210e-17
 3.3084982857727e-03
-2.4030570322341e-03
 2.2416921257257e-03
-2.2772319692930e-03
 1.2429985135451e-03
-4.6941507333531e-05
 8.3854165874930e-04
-2.8589036824522e-04
-1.5856456772600e-17
 5.4752209710518e-18
 4.5129915429709e-18
 6.3702604704417e-03
-8.0308520422423e-03
 4.0977797206109e-03
-6.1362942071561e-03
 2.3812454222156e-03
-1.7142484850182e-03
 1.5292034593255e-03
-1.5494875385549e-03
 9.4867690092482e-19
 9.2157184661268e-18
-8.2670415652020e-18
 1.1220626056085e-02
-1.7093627898461e-02
 7.0273295789635e-03
-1.1466957072674e-02
 4.2605052202305e-03
-5.1316687511382e-03
 2.6964761376793e-03
-3.8076743512392e-03
-3.5697356529085e-17
-4.5807541787513e-18
-6.3967928176645e-18
 1.8078906941422e-02
-2.7599409817295e-02
 1.0885790279985e-02
-1.6543288034383e-02
 7.1430520648246e-03
-1.0209411622867e-02
 4.4091687318701e-03
-6.7120896766752e-03
 3.7974181091305e-17
 1.1357017756786e-17
 1.3417001884508e-18
 2.5770421989733e-02
-3.5829113891547e-02
 1.4728094380483e-02
-1.9321600447306e-02
 1.0799808434267e-02
-1.5685604534912e-02
 6.3797250272763e-03
-9.2526697156026e-03
-4.5468728608611e-17
 4.9060148304969e-18
-1.2339575975601e-17
 3.2116566466304e-02
-3.8659221350627e-02
 1.7369202375795e-02
-1.8942374444961e-02
 1.4409017083810e-02
-1.9562367905263e-02
 8.0483868762640e-03
-1.0390974553164e-02
 8.7888138607106e-17
-2.1684043449710e-17
-1.0866416273736e-16
 3.5462433595431e-02
-3.5585545949433e-02
 1.8242742970247e-02
-1.6046693747175e-02
 1.6984632112173e-02
-2.0400759330629e-02
 8.9580863064773e-03
-9.8093797963772e-03
-5.0618688927917e-17
-4.4533604234842e-17
 3.8150363944334e-18
 3.5624146628331e-02
-2.8448899646642e-02
 1.7607960620295e-02
-1.1894345166709e-02
 1.7989430514827e-02
-1.8145486736213e-02
 9.0310142705476e-03
-7.9374711301758e-03
 5.6771536256772e-17
-4.4994390158148e-18
-1.7869007055277e-17
 3.3524367315339e-02
-1.9682571435275e-02
 1.6116416477051e-02
-7.5047075508721e-03
 1.7548098100569e-02
-1.3803136297439e-02
 8.4975303619803e-03
-5.4468163463781e-03
-6.3676548842789e-17
 3.7215239570565e-17
 3.3440860757600e-18
 3.0348694489719e-02
-1.0980154627123e-02
 1.4363659417594e-02
-3.3898134568915e-03
 1.6183725021463e-02
-8.6019201750553e-03
 7.6667668084873e-03
-2.8523692466322e-03
-2.1368947193332e-17
-1.5571853702323e-17
-4.3418908876255e-18
 2.7015839570020e-02
-3.0394890499830e-03
 1.2723117210069e-02
 3.2498580161899e-04
 1.4452701937003e-02
-3.4234213700766e-03
 6.7794019035006e-03
-4.2094194087383e-04
 1.7258296300306e-17
 4.8111471404044e-18
-5.4679153118817e-17
 2.4065401622636e-02
 4.0877350155881e-03
 1.1376636215395e-02
 3.6981837294405e-03
 1.2752905582317e-02
 1.3068132398881e-03
 5.9794047266646e-03
 1.7581047133639e-03
 1.1875401920505e-18
 6.1282833733849e-18
 2.3308652642544e-17
 2.1755526415541e-02
 1.0588349398051e-02
 1.0396787710487e-02
 6.8237380811666e-03
 1.1308897706208e-02
 5.4788938585857e-03
 5.3406989105049e-03
 3.6823886382091e-03
-2.8868576908321e-17
 6.8440262138147e-18
-4.0198489610795e-17
 2.0196472071341e-02
 1.6633239815601e-02
 9.8134277311635e-03
 9.7536134797949e-03
 1.0232580034618e-02
 9.1255503684215e-03
 4.9011596904709e-03
 5.3757454173571e-03
 5.2177229550865e-19
 1.8756697583999e-17
 1.7743646179083e-17
 1.9453766935649e-02
 2.2267677170225e-02
 9.6562478074733e-03
 1.2469659738670e-02
 9.5895533879400e-03
 1.2308209710711e-02
 4.6901033579676e-03
 6.8583064025098e-03
 6.3734994116150e-17
 6.4645554534448e-18
-3.1006911583665e-17
 1.9621998012916e-02
 2.7389069004592e-02
 9.9862028814432e-03
 1.4885663532787e-02
 9.4534192312068e-03
 1.5068534509400e-02
 4.7519789107460e-03
 8.1383818371528e-03
 1.9566461081574e-17
-2.1609504550352e-17
 5.0821976835258e-21
 2.0893471160100e-02
 3.1778222178694e-02
 1.0929911669468e-02
 1.6873060482506e-02
 9.9573671225599e-03
 1.7427079251774e-02
 5.1750096504675e-03
 9.2193082245640e-03
-1.1248597539537e-17
 2.3242584072658e-18
 7.2675426874419e-18
 2.3639646277720e-02
 3.5182231166085e-02
 1.2721784697166e-02
 1.8315698727385e-02
 1.1355062326874e-02
 1.9408962051118e-02
 6.1262245454863e-03
 1.0116158608852e-02
-7.2157042710699e-17
-2.1487531805947e-17
 5.6785088783928e-17
 2.8485844597709e-02
 3.7458600540947e-02
 1.5728408962199e-02
 1.9193783941407e-02
 1.4088072979030e-02
 2.1084972233019e-02
 7.8929595389698e-03
 1.0873705399658e-02
-4.4066042047958e-17
-2.8284124174716e-17
 1.6097014129621e-17
 3.6279070462538e-02
 3.8746248261090e-02
 2.0380975982386e-02
 1.9640938597503e-02
 1.8782511843182e-02
 2.2567393096431e-02
 1.0850612305605e-02
 1.1577006596867e-02
 1.6263032587283e-18
-1.4365678785433e-18
 2.6908542668375e-17
 4.7690968345136e-02
 3.9377947467800e-02
 2.6876582047151e-02
 1.9742788142783e-02
 2.6073980212887e-02
 2.3899703781989e-02
 1.5293915177021e-02
 1.2205926692384e-02
 1.7889335846011e-17
 2.4936649967167e-18
 1.6154612370034e-17
 6.2174728964798e-02
 3.8662193856710e-02
 3.4578239653608e-02
 1.8461771496372e-02
 3.5863629436859e-02
 2.4189439274414e-02
 2.0841110409536e-02
 1.1843196010059e-02
-1.7238814542519e-17
-7.1557343384043e-18
 3.7133924407629e-18
 7.5956694520079e-02
 3.1318923274986e-02
 4.2550354386381e-02
 1.0061022858128e-02
 4.5181876821335e-02
 1.9902739572052e-02
 2.4628727367510e-02
 1.0010970904068e-02
 6.8386052029523e-17
 7.4403374086818e-17
 1.3823577699190e-18
 6.3296875741643e-02
 8.7948651386421e-03
 4.0769836362298e-02
 6.8186778734898e-03
-1.1926223897340e-17
 1.2902005852577e-17
 3.3827107781548e-17
 5.6027799193337e-05
-1.9725238773249e-05
 7.2791100900693e-05
-3.8626848943402e-05
 2.6473638999214e-05
-8.5123019878952e-06
 3.5688745840812e-05
-1.6801167689762e-05
-9.8933448239302e-19
-1.1265538198482e-18
-1.4907779871676e-19
 2.0154545498019e-04
-1.7460769434752e-04
 1.2045736383823e-04
-1.3531693798896e-04
 1.1258390281732e-04
-7.7254851643699e-05
 7.4628087951334e-05
-6.1383128660886e-05
-5.4210108624275e-19
-4.9636130709102e-19
-1.5585406229479e-18
 2.1072282989887e-04
-2.5602861934759e-04
 9.0832216623732e-05
-1.0143775318028e-04
 1.5510062658119e-04
-1.2199769554463e-04
 7.9844618761982e-05
-5.3348210195425e-05
-1.9718927012080e-18
 1.1629762365801e-18
-1.2265037076242e-18
 1.6227501255794e-04
 2.5333861389809e-06
 8.3716459153949e-05
 1.1926954722696e-04
 1.4935883766043e-04
-2.0853518194142e-05
 7.2689711902329e-05
 3.9231343787805e-05
 7.9282283863003e-19
-3.3034284942918e-20
-4.0488174878756e-19
 2.9826568020308e-04
 5.2301181627523e-04
 2.3699840222530e-04
 4.0284625958975e-04
 1.6855080953349e-04
 2.1656049972230e-04
 1.0344667362983e-04
 1.7769569911730e-04
 1.2129511804682e-18
-1.4450382080158e-18
 1.5754812818930e-19
 8.2564128736840e-04
 9.2590047282726e-04
 6.1290381223866e-04
 5.0016192887981e-04
 3.0193974550574e-04
 4.7407589902493e-04
 2.0863440108809e-04
 2.8953573146873e-04
 3.7269449679189e-20
-2.3716922523120e-19
-3.1458803661025e-18
 1.7873080053339e-03
 5.7393121321625e-04
 1.1910713010707e-03
 7.6572422837984e-06
 5.8535315298158e-04
 5.7341355883334e-04
 3.8569299588964e-04
 2.6780498479617e-04
-5.5480658045157e-18
-8.2805940923580e-18
-7.6808947657020e-18
 3.2522767761105e-03
-1.4739188445257e-03
 2.0699228516596e-03
-1.6365803685439e-03
 1.0324909289512e-03
 2.3874446015060e-04
 6.5166106721204e-04
-6.2397920835622e-05
-8.5042107904332e-18
 1.4568966692774e-17
-6.2748200732599e-18
 5.6427563431776e-03
-6.2448617254862e-03
 3.5675266325979e-03
-4.8990381088716e-03
 1.7749810520478e-03
-9.4774971130151e-04
 1.1194024238934e-03
-9.5579122691025e-04
-1.3525422101757e-17
-2.8595832299305e-18
-2.3920210430461e-17
 9.6072592321938e-03
-1.4101306900398e-02
 6.0017840808233e-03
-9.6169122265071e-03
 3.0958048212053e-03
-3.4799525826734e-03
 1.9621062127881e-03
-2.6608745146861e-03
 1.5937771935537e-17
-1.1329912702473e-17
-1.3254371558635e-17
 1.5419232616344e-02
-2.3853902391881e-02
 9.3250181014888e-03
-1.4648396975469e-02
 5.2477712470207e-03
-7.5800102504249e-03
 3.2738042398259e-03
-5.1388613349910e-03
-4.1660468477756e-17
 3.4558944247975e-17
-5.5545032549148e-17
 2.2348232714590e-02
-3.2771595142474e-02
 1.2895562968596e-02
-1.8334452020657e-02
 8.1833762087271e-03
-1.2693495828800e-02
 4.9189689127411e-03
-7.8331441680186e-03
-5.8858625438807e-17
-1.3633842319005e-17
-2.8040178685906e-17
 2.8720334821002e-02
-3.7946765205855e-02
 1.5744286326658e-02
-1.9507787021990e-02
 1.1404314902911e-02
-1.7467059880171e-02
 6.5174260166430e-03
-9.8848705951831e-03
 5.2787093272888e-17
 4.2554935270056e-17
-5.8079355127333e-17
 3.2888379367063e-02
-3.7897528482134e-02
 1.7181379112736e-02
-1.8032210843650e-02
 1.4130208858667e-02
-2.0424964226483e-02
 7.6453493355979e-03
-1.0646465397520e-02
 2.3527187142935e-17
-4.0657581468206e-18
 4.6722337370547e-17
 3.4174116681195e-02
-3.3002363898583e-02
 1.7135335523472e-02
-1.4535816810742e-02
 1.5716654444937e-02
-2.0725287288887e-02
 8.0786255960730e-03
-9.9747582774015e-03
-2.7132159366450e-17
-2.2930875948068e-17
-6.4604896952980e-17
 3.2963812126770e-02
-2.4752027054368e-02
 1.6007313770347e-02
-9.8594964517531e-03
 1.5965262699183e-02
-1.8380166704738e-02
 7.8611797867847e-03
-8.1253433776283e-03
 3.9986731373981e-17
-5.7083244381362e-17
 1.3103599694024e-17
 3.0189221814525e-02
-1.4773018896208e-02
 1.4336808686041e-02
-4.6975442261399e-03
 1.5110712018419e-02
-1.3971013909584e-02
 7.2035271460429e-03
-5.4922755808828e-03
-4.1748559904270e-17
 2.6562953225895e-18
-4.9653071368047e-18
 2.6802563645115e-02
-4.2889541144486e-03
 1.2574351818372e-02
 4.9624205060184e-04
 1.3603166174534e-02
-8.2483170111971e-03
 6.3510398948985e-03
-2.4322384813047e-03
-3.2126265623461e-17
-2.8216361538935e-17
-1.0316014264610e-17
 2.3525466575626e-02
 5.9522026929164e-03
 1.1019413145168e-02
 5.4582123732203e-03
 1.1900915706107e-02
-1.8810072362840e-03
 5.5096215176489e-03
 7.8442066405593e-04
-1.6452767967467e-17
-2.1778911139803e-17
 2.0532078641444e-18
 2.0829098408219e-02
 1.5532619754212e-02
 9.8536080594385e-03
 1.0033020345389e-02
 1.0372077387139e-02
 4.6129648452413e-03
 4.8310649630521e-03
 3.9545551720526e-03
-1.8648277366751e-17
-2.0911549401814e-17
 2.8113023519370e-17
 1.9021023162993e-02
 2.4204424478045e-02
 9.2016776195631e-03
 1.4116143829305e-02
 9.2899709658063e-03
 1.0835246182406e-02
 4.4293320746886e-03
 6.9105081363743e-03
 5.2976828653073e-17
-9.9475549325545e-18
-1.0055975149803e-17
 1.8360823215838e-02
 3.1807901013163e-02
 9.1944179313472e-03
 1.7641950907876e-02
 8.8730731855797e-03
 1.6461610124538e-02
 4.4041818709850e-03
 9.5095711733864e-03
 3.3103741644593e-17
 4.0989618383530e-17
-2.3866000321837e-17
 1.9189360152240e-02
 3.8295828439378e-02
 1.0039325986908e-02
 2.0627801697614e-02
 9.3459344761655e-03
 2.1252472168616e-02
 4.8734423631673e-03
 1.1659890758145e-02
 2.3364556817063e-17
-1.0652286344670e-17
 7.3932423768144e-17
 2.2108515601386e-02
 4.3861898177853e-02
 1.2123395294938e-02
 2.3254140384040e-02
 1.1021899133956e-02
 2.5169329214988e-02
 6.0278206334119e-03
 1.3417173820334e-02
 4.0461069824443e-17
 4.7908183496703e-18
 1.9888333601531e-17
 2.8221355144731e-02
 4.9103052834057e-02
 1.6159359885255e-02
 2.5977709929039e-02
 1.4491736982214e-02
 2.8603776336738e-02
 8.2386026035412e-03
 1.5089980068918e-02
 3.3156257687322e-17
-2.3825342740369e-17
 7.3183646642772e-19
 3.9485954236224e-02
 5.4977923402644e-02
 2.3284707758072e-02
 2.9254477325007e-02
 2.0910140828174e-02
 3.2643482579576e-02
 1.2447025755071e-02
 1.7333906770408e-02
-4.7467726364131e-17
-1.9542744159051e-17
 1.9874781074375e-17
 5.8444109574465e-02
 6.1965723938490e-02
 3.4860638334011e-02
 3.2967056797043e-02
 3.2314974552598e-02
 3.8101842121657e-02
 1.9816328301201e-02
 2.0285213550408e-02
 2.7403209909571e-17
 3.4423418976415e-18
-2.9747797107571e-17
 8.6801240672171e-02
 6.7106620191007e-02
 5.0922455300984e-02
 3.3921307642622e-02
 5.0433726754697e-02
 4.3215373365414e-02
 3.1529221141719e-02
 2.0987824431158e-02
 5.1662233518934e-17
-4.9873299934333e-18
 2.1169047417779e-17
 1.1912327415106e-01
 5.7492524740062e-02
 6.7767916477011e-02
 1.7097524483020e-02
 6.8967360621812e-02
 3.5912133009703e-02
 4.0852771309309e-02
 2.1223114011590e-02
 4.4560709289154e-17
-9.9204498782424e-18
 1.3660947373317e-17
 1.0302833802129e-01
 1.6036442641158e-02
 6.8468559386289e-02
 1.3156440903638e-02
-7.2424705122032e-17
 2.6020852139652e-17
-2.1684043449710e-19
 3.9426409223942e-05
-1.4197067562671e-05
 5.3320902054454e-05
-2.7914283118768e-05
 1.3192482936297e-05
-5.5726962512326e-06
 1.8307720043964e-05
-1.0748283849615e-05
-4.0657581468206e-20
 3.5405977195230e-19
 5.4887734982079e-19
 1.8118119602517e-04
-1.3075447922162e-04
 1.2592520421678e-04
-1.0619201000050e-04
 6.8013315750015e-05
-5.2885738440450e-05
 4.9578146375628e-05
-4.4168155554303e-05
-1.5585406229479e-18
 2.0328790734103e-20
 2.2429432443294e-18
 2.7914324160128e-04
-2.2382073543803e-04
 1.5271037019740e-04
-1.0743343769892e-04
 1.1743869305114e-04
-1.0017440049290e-04
 6.6943085784699e-05
-5.2783444444371e-05
-3.6253010142484e-19
-4.8662042819760e-19
-7.2844833463870e-19
 2.9326553347309e-04
-9.0676866729256e-05
 1.4410497347342e-04
 2.7165852052313e-05
 1.3082351585947e-04
-6.6420440240134e-05
 6.4101201612043e-05
-9.7049305216590e-06
-1.0164395367052e-19
 9.8594635060401e-19
 9.7069975755343e-19
 3.0190472499381e-04
 2.6779982406722e-04
 1.6577274877117e-04
 2.4244903683890e-04
 1.2100742718157e-04
 5.5821814810064e-05
 5.8762908976995e-05
 6.6380883237072e-05
-1.1418004128988e-18
-5.8106460181645e-19
 1.0570971181734e-18
 4.3589247009057e-04
 6.8934731336101e-04
 2.8037632164479e-04
 4.4124834178127e-04
 1.3075678611774e-04
 2.1540934438985e-04
 7.5187578709945e-05
 1.4683056495590e-04
 1.2197274440462e-19
-1.0808140406965e-18
 1.2654672231979e-18
 7.6567880843736e-04
 9.5441184686662e-04
 4.9355625149539e-04
 4.9971841511454e-04
 1.9258094956154e-04
 3.6153278551032e-04
 1.2124411665671e-04
 2.0998971113051e-04
 2.0261028098323e-18
 1.9176825925837e-18
 5.1669009782512e-19
 1.2943156774516e-03
 7.2788400595769e-04
 8.0713558763601e-04
 1.9302159259205e-04
 3.0928495991134e-04
 4.3396795691408e-04
 1.9305567626660e-04
 2.1463329857463e-04
 9.0361474813089e-18
-3.7337212314970e-18
 5.8614679949998e-19
 2.1274385578094e-03
-5.8815712805604e-04
 1.3275058348323e-03
-8.7112516867460e-04
 4.9481825749709e-04
 2.9712607035637e-04
 3.0753087889401e-04
 6.3753341478456e-05
-9.8662397696181e-18
 4.1674021004912e-18
-7.0473141211558e-19
 3.5782556384196e-03
-3.8381013399460e-03
 2.2568063247777e-03
-3.1447813424759e-03
 8.2150950449389e-04
-3.0547835342065e-04
 5.1587611994108e-04
-4.0233765882869e-04
 2.0857339293190e-17
-1.6872896309306e-17
 1.8024861117571e-18
 6.0482831730404e-03
-9.6478224539840e-03
 3.7921678615240e-03
-6.7698098348163e-03
 1.4194142619513e-03
-1.7203873990335e-03
 9.0040555840254e-04
-1.3733666138251e-03
 8.1179637664852e-18
-2.7782680669941e-18
-1.5070410197548e-17
 9.7937962641184e-03
-1.7718567492770e-02
 5.9818105684659e-03
-1.1254965257764e-02
 2.4453481978384e-03
-4.2586750837583e-03
 1.5429669669338e-03
-2.9755620466894e-03
-2.0125502826762e-17
 1.9827347229329e-17
 2.9612271836010e-18
 1.4592423428863e-02
-2.6571162180577e-02
 8.5561759904751e-03
-1.5564577514960e-02
 3.9750288288190e-03
-7.9461330516652e-03
 2.4407762755123e-03
-5.1076570161897e-03
 3.7960628564149e-17
-6.7762635780344e-18
-9.6832806530112e-18
 1.9582452385128e-02
-3.4066102699249e-02
 1.0955716258251e-02
-1.8600424988676e-02
 5.8744965118969e-03
-1.2306236280000e-02
 3.4568594101865e-03
-7.3823282617855e-03
 6.2212875909934e-17
 1.2034644114589e-17
-7.7872821038771e-17
 2.3604568910897e-02
-3.8359417101138e-02
 1.2607400263510e-02
-1.9684093426523e-02
 7.7911470467633e-03
-1.6478008725888e-02
 4.3631197207317e-03
-9.2974372427559e-03
 3.4362432604212e-17
-1.4772254600115e-18
-3.7906418455524e-17
 2.5794914462065e-02
-3.8569073562995e-02
 1.3207080306680e-02
-1.8687115907390e-02
 9.2909728373698e-03
-1.9602112571640e-02
 4.9466421921309e-03
-1.0469862319818e-02
-8.5773944370759e-17
-6.9456701674853e-18
-8.8667408918580e-18
 2.5926985155891e-02
-3.4781903755963e-02
 1.2796672598393e-02
-1.5856715256462e-02
 1.0047562475421e-02
-2.1127624163825e-02
 5.0977255165261e-03
-1.0735031209097e-02
-5.2726106900686e-17
-1.6059744679942e-17
 4.5631358934484e-17
 2.4348537818822e-02
-2.7645858633075e-02
 1.1659066704263e-02
-1.1578719338225e-02
 9.9544146835235e-03
-2.0864105235119e-02
 4.8288460968724e-03
-1.0097648248449e-02
 2.4784184036661e-17
 7.2099444470286e-18
 1.4239301469703e-16
 2.1719512583513e-02
-1.7952320357807e-02
 1.0172178189538e-02
-6.2241913515777e-03
 9.1210973992979e-03
-1.8851666331266e-02
 4.2434309229753e-03
-8.6272999038126e-03
-4.2412633734917e-17
 1.3660947373317e-17
 5.3590080506885e-17
 1.8787506142082e-02
-6.4053924332796e-03
 8.7190827398338e-03
-9.6255532710643e-05
 7.8103962631921e-03
-1.5188364565059e-02
 3.5007459333611e-03
-6.3738001906621e-03
 1.7204933224629e-17
-6.0037695301385e-18
-6.2043469320483e-17
 1.6291734618506e-02
 6.4315288570231e-03
 7.6695752703864e-03
 6.5637644120358e-03
 6.3888750421839e-03
-9.8996937726621e-03
 2.8028154466862e-03
-3.3171757626063e-03
 1.3091741232762e-17
 7.8062556418956e-18
 9.4542429440736e-17
 1.4979836728003e-02
 2.0097319715008e-02
 7.4045889367325e-03
 1.3540465346733e-02
 5.3305106757051e-03
-2.8613638673773e-03
 2.4175438356746e-03
 6.3641613113674e-04
-7.6625988540413e-17
 1.6398557858843e-17
 4.6742666161281e-17
 1.5660608358624e-02
 3.4202213790031e-02
 8.3641517089022e-03
 2.0667523743654e-02
 5.2436578200208e-03
 6.1911526966711e-03
 2.6740288140381e-03
 5.6969737931003e-03
-7.7791505875835e-17
-1.5964876989849e-17
 3.2729353081906e-17
 1.9336584461147e-02
 4.8476648477790e-02
 1.1084001367469e-02
 2.7817406343926e-02
 6.9891003880667e-03
 1.7697099108746e-02
 4.1013616923618e-03
 1.2000630417894e-02
 5.8885730493119e-18
 1.3986208025063e-17
 1.2326023448445e-17
 2.7344387822489e-02
 6.3121177013850e-02
 1.6464960936975e-02
 3.5338921391599e-02
 1.1530570363496e-02
 3.1861079991110e-02
 7.0517169975646e-03
 2.0001420641637e-02
-3.1299561466941e-17
-1.2630955309456e-17
-6.0647559023408e-18
 4.2053645379191e-02
 7.9063541926283e-02
 2.5830222799018e-02
 4.4046953668069e-02
 2.0848291605836e-02
 4.9215330498767e-02
 1.3034332201325e-02
 2.8930208020548e-02
-3.9844429838842e-18
-5.3207221614726e-17
 2.0870891820346e-17
 6.8905151485310e-02
 9.8855837920499e-02
 4.3319101016301e-02
 5.5284718391800e-02
 3.6469453635828e-02
 6.7793737593318e-02
 2.2086240444303e-02
 3.9445368824154e-02
 2.9273458657109e-18
-2.5045070184415e-17
-8.2670415652020e-18
 1.1563036792429e-01
 1.1852598276504e-01
 7.2228759260220e-02
 6.6819651085758e-02
 6.9532149234163e-02
 8.5956281956942e-02
 4.6649691029646e-02
 3.6353041405580e-02
-4.9439619065339e-17
 1.3010426069826e-17
 1.1492543028346e-17
 1.8811682718656e-01
 1.1185300106601e-01
 1.0644980039587e-01
 2.9415623607733e-02
 9.7418713876692e-02
 6.4311010957881e-02
 6.9769028777824e-02
 4.7755112277869e-02
 6.9388939039072e-18
-1.2685165418080e-17
 3.3176586478056e-17
 1.7298502218579e-01
 3.2343260959832e-02
 1.1725230758961e-01
 3.5956169989090e-02
-2.3418766925687e-17
 5.2041704279304e-18
-8.2399365108898e-18
 1.3455633074422e-05
-7.0093637869473e-06
 1.8784638064151e-05
-1.3906030261524e-05
 1.6598371912480e-06
-1.3565229894652e-06
 2.5947458099918e-06
-2.7238643509619e-06
-1.3552527156069e-19
-1.7448878713439e-19
-2.7782680669941e-19
 7.6711847538324e-05
-7.1410062600696e-05
 5.8383736695922e-05
-6.2187487955612e-05
 1.4297615539505e-05
-1.8349500991444e-05
 1.1339596901472e-05
-1.7749432555725e-05
 9.6900569165892e-19
-1.3343945292807e-18
 9.3512437376875e-19
 1.4129049452194e-04
-1.4782337228303e-04
 8.2580543171534e-05
-8.2031192625287e-05
 2.8762746166144e-05
-4.5111297536787e-05
 1.7074075392198e-05
-2.6909080335979e-05
-4.9670012026992e-18
 2.4458076351968e-19
-1.3349239248728e-18
 1.6184779975614e-04
-1.1965943082548e-04
 7.9740201156919e-05
-3.2889714700168e-05
 3.3172104441981e-05
-4.5620572120097e-05
 1.6201939998295e-05
-1.7336168222526e-05
 2.0904773138236e-18
-8.1315162936413e-20
-1.2129511804682e-18
 1.4648831935038e-04
 2.5080800787225e-05
 6.8251004581965e-05
 5.8925880993321e-05
 2.7548983191572e-05
-1.6202594116943e-05
 1.1559611337031e-05
 2.0688602520025e-06
-1.1841520602615e-18
 3.5236570605779e-19
-1.2315859053077e-18
 1.4359568502642e-04
 2.1687744072385e-04
 7.7578271026335e-05
 1.5631508269642e-04
 2.0249882586754e-05
 2.3452176436678e-05
 8.8826364230687e-06
 2.1655627235662e-05
-1.3417001884508e-18
-1.6432439176733e-19
 5.9292306307801e-20
 1.9638781724618e-04
 3.9951139847316e-04
 1.2075509908938e-04
 2.4088812656409e-04
 2.0379572101881e-05
 6.3515226587180e-05
 1.1769794871608e-05
 4.1471128491954e-05
-1.2536087619364e-19
-3.3203691532369e-19
-6.4035690812425e-19
 3.1277516770523e-04
 5.2544184499448e-04
 1.9339263728291e-04
 2.8002977030539e-04
 3.0485272304759e-05
 1.0605241235312e-04
 1.9454856017731e-05
 6.3188868633102e-05
 2.4496192834594e-18
-2.6291902682774e-18
-1.3789696381300e-18
 4.9650537749368e-04
 4.6684995390800e-04
 3.0456844854965e-04
 1.7296181385706e-04
 4.8188659445003e-05
 1.4347432848194e-04
 3.0545538177051e-05
 7.6469679820335e-05
-2.0464316005664e-18
 5.3939058081154e-18
-2.5580395007080e-18
 7.9717831383031e-04
-7.4419269016524e-05
 4.9415697895738e-04
-2.8384953872873e-04
 7.5118467414370e-05
 1.3235190747030e-04
 4.7431667704600e-05
 4.7248676102285e-05
 9.1767549505531e-18
-1.1113072267976e-18
 1.0384623933338e-18
 1.3233437777818e-03
-1.5887269613524e-03
 8.3247028864353e-04
-1.3811137667759e-03
 1.2231035709576e-04
-2.5114030447693e-05
 7.7337470420158e-05
-8.7390745669325e-05
-7.6859769633855e-18
 1.5991982044161e-18
 1.8177327048077e-18
 2.2252975602321e-03
-4.6292570390296e-03
 1.3984595288741e-03
-3.3703671443366e-03
 2.0911016437708e-04
-4.7453670757669e-04
 1.3130735040612e-04
-4.0708010755353e-04
-1.7414997395548e-18
-4.4994390158148e-18
-1.4270811095341e-17
 3.6179236929308e-03
-9.4618696900386e-03
 2.2252623688796e-03
-6.2411890941494e-03
 3.5922261363197e-04
-1.3636686485112e-03
 2.2422444449433e-04
-9.7861223961981e-04
-1.5043305143236e-18
 1.0659062608248e-17
-1.2332799712023e-18
 5.4846527357890e-03
-1.5725075652627e-02
 3.2597516108455e-03
-9.6257560628743e-03
 5.9995889243680e-04
-2.7780070822017e-03
 3.7232845120361e-04
-1.8247231874566e-03
 1.5707378973884e-17
-2.6251245101305e-17
-1.3552527156069e-19
 7.6146142345732e-03
-2.2482938929187e-02
 4.3440906229968e-03
-1.2955287411344e-02
 9.4697538855115e-04
-4.6917752030549e-03
 5.7553054313431e-04
-2.9026392014755e-03
-5.8140341499535e-18
 1.1926223897340e-17
-6.8440262138147e-18
 9.6136499883839e-03
-2.8631853868417e-02
 5.2504591185238e-03
-1.5709486964987e-02
 1.3717990711974e-03
-6.9586356866349e-03
 8.0252747899223e-04
-4.1097382607056e-03
-4.5468728608611e-17
 1.9515639104739e-18
 2.3838895267525e-17
 1.1035366970216e-02
-3.3312447852015e-02
 5.7679891470412e-03
-1.7573313503419e-02
 1.7928064252608e-03
-9.3632373675208e-03
 9.9928339140831e-04
-5.3271197127769e-03
 2.7620050344068e-17
 2.2741140567883e-17
 4.5265440701270e-18
 1.1550009006414e-02
-3.6091576974333e-02
 5.7770963925474e-03
-1.8449707387799e-02
 2.1024658472193e-03
-1.1717886458425e-02
 1.1103178408138e-03
-6.4763984999665e-03
-1.2603850255144e-18
-2.3744027577433e-17
 1.3281476612947e-17
 1.1037896609780e-02
-3.6898407097155e-02
 5.2723495894389e-03
-1.8374701284952e-02
 2.2044256380340e-03
-1.3946956543080e-02
 1.0946972289272e-03
-7.5528640295008e-03
-7.8767287831072e-17
 3.3935527998796e-17
-4.2690460541617e-17
 9.5934830879720e-03
-3.5818631775502e-02
 4.3515481641929e-03
-1.7397334055513e-02
 2.0372828546336e-03
-1.6115309400465e-02
 9.3147269629235e-04
-8.6211278656432e-03
 4.1931519020877e-17
 2.0870891820346e-18
 8.0989902284667e-17
 7.5137410678598e-03
-3.2846007066304e-02
 3.2161194715390e-03
-1.5459870050233e-02
 1.5836302464223e-03
-1.8390822867104e-02
 6.2385281157340e-04
-9.7841222235156e-03
-2.8094388794531e-17
 4.4953732576680e-17
 1.7808020683074e-17
 5.3140274062597e-03
-2.7624402043074e-02
 2.1966224883401e-03
-1.2245622944288e-02
 8.8694400927025e-04
-2.0968791590696e-02
 1.9765093964885e-04
-1.1104787704455e-02
 4.0061270273339e-17
 2.5072175238727e-19
 3.5317885768715e-17
 3.9399005758409e-03
-1.9126247633253e-02
 1.8775567123602e-03
-7.0877587216565e-03
 7.3525133938546e-05
-2.3808015391604e-02
-2.0676467044911e-04
-1.2558167925900e-02
 2.1141942363467e-17
-1.1607739509173e-17
 7.7994793783176e-17
 4.6242536192551e-03
-5.2613214773398e-03
 3.0720673157201e-03
 1.6839714767194e-03
-5.2279001640443e-04
-2.6595961336764e-02
-6.0522193818224e-04
-1.3435722671727e-02
-3.0289898193814e-17
-1.2508982565051e-17
-8.5651971626355e-18
 1.0427993923676e-02
 1.7938415407688e-02
 7.4109709408727e-03
 1.5454300447754e-02
-2.8704209523650e-04
-2.6503760289368e-02
 4.1351450521387e-04
-1.3170210467800e-02
 5.5660229029975e-17
-6.1067687365246e-17
-4.2649802960148e-17
 2.2265688251342e-02
 5.6305730739215e-02
 1.6493711223655e-02
 4.1899257188142e-02
 1.7820009537903e-03
-2.2189752715715e-02
-7.1511429226501e-04
-5.1722459700567e-03
-1.2861348271109e-16
-4.2283884726935e-18
-5.9658224541015e-17
 5.3212878863151e-02
 1.1931347475140e-01
 3.4471833655492e-02
 7.2114146112043e-02
 1.0287650661667e-02
 8.7148740954461e-03
 1.4020548835122e-02
 7.6853841216025e-03
-1.1885566315872e-17
-1.6263032587283e-17
-1.3360081270453e-16
 9.5508167145353e-02
 2.1184996785048e-01
 7.7927206443341e-02
 1.6074866068681e-01
 1.9402379099532e-02
 4.4997443287730e-02
-2.8793952897860e-02
 6.9445358711345e-02
 4.4669129506403e-17
 1.9081958235745e-17
-1.4311468676809e-17
 2.7116468862963e-01
 2.5465458271630e-01
 1.5065062861116e-01
 7.0529750458888e-02
 1.2843144160831e-01
 2.6711965047311e-01
 1.4216189654437e-01
 1.0667732042204e-01
-6.9388939039072e-18
-4.4452289071906e-18
-1.7347234759768e-18
 3.3495113111941e-01
 9.7122103347967e-02
 3.5577231761076e-01
 4.0732481837719e-01
-6.2450045135165e-17
 2.7321894746635e-17
-5.2041704279304e-18
 7.6815546423692e-07
-7.7597499892335e-07
 1.3637528179788e-06
-1.7391518101206e-06
 1.7660636950252e-19
-1.1773757966835e-19
 3.7057691442376e-20
 7.4083654003632e-06
-1.3349364221704e-05
 6.0649908844024e-06
-1.2979649669731e-05
 5.4210108624275e-20
-1.1011428314306e-19
-1.4568966692774e-19
 1.5162702684868e-05
-3.3618032945326e-05
 8.9381618648132e-06
-2.0021383962288e-05
-7.0811954390459e-19
 6.6407383064737e-19
 1.9651164376300e-19
 1.7530517009812e-05
-3.4398319135653e-05
 8.4705842399169e-06
-1.3535255413366e-05
 8.5042107904332e-19
-7.1320174158812e-19
-8.2501009062569e-19
 1.4542651266547e-05
-1.4414250944839e-05
 6.1009673100187e-06
-6.4109824027270e-07
-7.6571778431789e-19
 8.5550327672684e-19
-9.5375909860834e-19
 1.0794419145754e-05
 1.1027721081969e-05
 4.8755621828156e-06
 1.1549772271913e-05
-5.5734767929333e-19
-1.8465318250144e-19
 7.2844833463870e-19
 1.1367468682466e-05
 3.5086465355994e-05
 6.7131585960445e-06
 2.3328016038882e-05
 8.3009228830921e-19
 7.3522459821673e-19
-6.1155778791761e-19
 1.7881993538804e-05
 6.0195021247766e-05
 1.1338572711350e-05
 3.6498432312904e-05
-1.2027867851011e-18
 1.4907779871676e-19
-3.3203691532369e-19
 2.9522271830729e-05
 8.2740680750204e-05
 1.8299219607443e-05
 4.5152999165410e-05
 8.1315162936413e-20
-2.2361669807514e-19
-4.1335207826010e-19
 4.7368036239392e-05
 7.6237982761906e-05
 2.9001972294940e-05
 2.8185391977686e-05
-4.1335207826010e-19
 4.3368086899420e-19
 3.5914196963582e-19
 7.6259633220888e-05
-2.0133452142357e-05
 4.6865811063945e-05
-5.4320766476934e-05
 4.5943067059073e-18
-2.1751806085490e-18
 7.3183646642772e-19
 1.2379579807620e-04
-3.0076432149384e-04
 7.6351292348065e-05
-2.5641525551734e-04
-2.2564957714855e-18
 1.0164395367052e-19
-2.9273458657109e-18
 1.9877320007078e-04
-8.7387504270797e-04
 1.2252932275292e-04
-6.3189462055568e-04
 2.8087612530953e-18
 6.7762635780344e-20
 1.3930303850544e-17
 3.1186341853084e-04
-1.8260673158839e-03
 1.9114644088614e-04
-1.2130810872648e-03
-1.1824579943670e-17
-1.4907779871676e-18
 1.1248597539537e-18
 4.7061452077335e-04
-3.1798872401008e-03
 2.8272067044721e-04
-1.9887292450456e-03
 3.4033783820678e-18
-1.0747154034763e-17
-4.8839919738683e-18
 6.6528137091737e-04
-4.8668212850216e-03
 3.8578646613008e-04
-2.9000481879464e-03
 3.3603491083473e-17
-3.4694469519536e-18
-1.7482760031329e-18
 8.6245022517151e-04
-6.7488785816083e-03
 4.7832065683906e-04
-3.8675776090500e-03
 2.0599841277225e-18
 1.1709383462843e-17
-1.7035526635179e-17
 1.0141028279831e-03
-8.6886329064031e-03
 5.3507138115627e-04
-4.8345379639159e-03
-1.7482760031329e-17
 2.7105054312138e-19
-2.3120611328253e-17
 1.0724561949766e-03
-1.0627652660797e-02
 5.3428212267015e-04
-5.8012839853774e-03
-7.9417809134563e-18
-1.2522535092208e-17
-1.4121733296624e-17
 1.0012967236719e-03
-1.2634989093233e-02
 4.6169093803528e-04
-6.8394321321961e-03
 7.1557343384043e-17
-2.3771132631745e-17
 5.9902170029824e-18
 7.7598241023136e-04
-1.4915509646787e-02
 3.0835261588891e-04
-8.0819740336508e-03
 2.7972416050126e-17
-3.4504734139351e-17
 2.4123498337803e-18
 4.1386288789003e-04
-1.7786965102939e-02
 9.3364560582287e-05
-9.7347520096172e-03
-1.5775141609664e-17
 1.5531196120855e-17
 2.4719809532670e-17
-1.5640429039543e-04
-2.1622474214063e-02
-2.2377096453319e-04
-1.1880084493786e-02
-3.3230796586681e-17
 2.3256136599814e-17
 1.3769367590566e-17
-3.6391662194291e-04
-2.6711952461470e-02
-2.7623453485859e-04
-1.5168411229572e-02
 4.1850203857941e-17
-4.0711791576831e-17
-5.0415401020576e-18
-2.1372036511580e-03
-3.3017147409932e-02
-1.1065279510270e-03
-1.7004503459454e-02
 4.9548039282588e-17
 4.0874421902703e-17
 3.9573379295721e-18
 4.0818146576425e-03
-3.8851443041470e-02
 2.2595659852271e-03
-2.6525373527019e-02
-1.3650105351593e-16
 1.6588293239028e-17
 2.3310346708438e-17
-1.6896066530349e-02
-4.1995024590039e-02
-5.8350029758270e-03
-1.5191118784941e-04
 3.5778671692022e-18
 1.3444106938820e-17
-6.4347398937015e-17
 7.7435417370815e-02
-1.8440083079060e-02
 2.8484535858590e-02
-1.0256249549056e-01
-1.2490009027033e-16
-7.8062556418956e-18
-3.2092384305571e-17
-2.9531949133593e-01
-1.3401926366257e-03
-3.1135076280629e-02
 2.8307134451973e-01
 5.3776427755281e-17
 2.0816681711722e-17
-1.0061396160665e-16
 1.4747278862264e+00
 8.1677209395445e-01
 1.3877787807814e-17
 0.0000000000000e+00
-4.1633363423443e-17
