%%MatrixMarket matrix array real general
9661 1
-1.3849918231272e-06
-1.2889840982023e-06
-2.3845980135495e-06
-2.3433416447699e-06
-3.4549687980695e-06
-2.5425086049719e-06
-5.3068944592047e-06
-3.5272369581924e-06
 9.5714723039736e-20
 3.3881317890172e-20
-1.1365252999281e-05
-2.7720309314930e-05
-8.2495533960947e-06
-2.8483957779074e-05
-2.5405253594235e-05
-4.1573236977691e-05
-1.7654863399802e-05
-4.0824807373496e-05
 4.9636130709102e-19
-1.2536087619364e-19
-5.9122899718350e-19
-2.4788491239262e-05
-1.3494868807088e-04
-1.7476179364873e-05
-1.1623446468928e-04
-5.9655990407137e-05
-1.8662495385456e-04
-3.9827467993109e-05
-1.5801298053289e-04
-1.5930995671959e-17
-7.4538899358378e-20
-3.6591823321386e-19
-6.9503714763872e-05
-3.7289640408895e-04
-5.6019254930373e-05
-2.7149954924832e-04
-1.4890354371755e-04
-4.4002281686053e-04
-1.1071152121513e-04
-2.9995609052069e-04
-3.0818446752901e-17
 1.2061749168901e-18
-3.9885087420311e-17
-2.1238016797306e-04
-5.2322474913163e-04
-1.5685151746891e-04
-2.3932918770653e-04
-3.5222724556616e-04
-3.7624845371287e-04
-2.3957344003045e-04
-4.7777748716921e-05
 6.3371616981778e-17
 9.7469775306447e-17
-2.9002408113987e-17
-4.7075241387939e-04
 1.2210465330797e-04
-3.1360224589383e-04
 3.9523552593401e-04
-6.5259314053368e-04
 7.3778268314972e-04
-3.7816931123413e-04
 8.6748719371854e-04
 3.4423418976415e-18
-2.7891100887190e-17
 2.3039296165317e-18
-7.9991328310447e-04
 1.7237994195944e-03
-5.1718715743121e-04
 1.2454511040527e-03
-1.0337416279374e-03
 2.5146289650344e-03
-5.9566953942625e-04
 1.7036085257187e-03
 1.7618285302889e-18
 6.9388939039072e-18
 8.6465123255719e-18
-1.2841994501072e-03
 2.3531897669731e-03
-8.5073534963587e-04
 7.4375058157017e-04
-1.6267418550306e-03
 2.9685365656875e-03
-1.1432368327728e-03
 1.0442844014342e-03
 3.5778671692022e-18
 3.6320772778264e-18
-1.1926223897341e-18
-2.2106083959916e-03
-9.8331542620445e-04
-1.3364757180998e-03
-2.2821165656204e-03
-3.1291427101721e-03
-4.9488661174379e-05
-1.9990203122697e-03
-1.5177965117568e-03
-1.8507331084328e-16
-1.8431436932254e-18
 1.5720931501040e-17
-3.3243323463887e-03
-8.4044090238264e-03
-1.9991845804306e-03
-6.3590493333461e-03
-5.3794871809387e-03
-6.4942002126767e-03
-3.2158179177293e-03
-4.6117972866266e-03
-5.3939058081154e-18
-6.6136332521616e-18
 5.2041704279304e-18
-4.4886831430548e-03
-1.5703566776508e-02
-2.5382452466829e-03
-9.1733947846677e-03
-7.2687009715509e-03
-1.2968005269046e-02
-4.1562052800952e-03
-7.3380775368683e-03
 8.6736173798840e-18
-4.5818383809237e-16
-6.3702298644386e-16
-5.3954508668874e-03
-1.8507780819002e-02
-2.8113794170963e-03
-9.1003696178760e-03
-8.4190902793182e-03
-1.6246958325372e-02
-4.4847272165303e-03
-8.2100932900033e-03
-3.7659762461284e-16
-2.9544509200230e-16
-8.2122893554915e-16
-5.6922187476829e-03
-1.5714819792093e-02
-2.8264619051495e-03
-6.4708867622443e-03
-8.6788408951435e-03
-1.5581049360889e-02
-4.3776322195974e-03
-7.1560337588359e-03
 4.4197501561372e-16
-7.2289179850471e-17
-7.9078995955661e-16
-5.5662149238565e-03
-8.9758218231761e-03
-2.7346436055762e-03
-2.4740898115994e-03
-8.5102778493820e-03
-1.1722410567957e-02
-4.1555804276321e-03
-4.6397405084946e-03
 4.7000164177247e-17
-6.3364840718200e-17
-9.0951009744378e-17
-5.3292023380926e-03
-8.9913477238923e-04
-2.6367836783123e-03
 1.5416030609856e-03
-8.2859306162675e-03
-6.0378495119808e-03
-4.0349933300021e-03
-1.4580395261170e-03
-2.0897996874658e-17
 7.7791505875835e-18
 1.0012607062904e-16
-5.1162693820466e-03
 6.1320426550680e-03
-2.5270478744535e-03
 4.5298267608871e-03
-8.2039900679547e-03
 8.7205658497957e-05
-4.0231717329533e-03
 1.6932735421520e-03
-1.7526128118228e-16
-6.1149002528182e-17
-3.8386177916849e-16
-4.8104219349234e-03
 1.0299447770723e-02
-2.2869907401937e-03
 5.7258620547032e-03
-8.0665401939086e-03
 5.3115579597556e-03
-3.9466449092771e-03
 4.0784638456834e-03
-8.0339380981176e-17
-1.6588293239028e-17
-2.8584990277580e-16
-4.1404735821970e-03
 1.0683893960934e-02
-1.8048008266334e-03
 4.9652217414291e-03
-7.4423840616618e-03
 8.4262765845065e-03
-3.5067038700980e-03
 5.0574836668567e-03
 5.4361896928423e-16
 1.0972125985553e-16
-2.1938830960244e-16
-2.9849343051183e-03
 7.9078132263817e-03
-1.1477949479914e-03
 3.0109177609461e-03
-5.9606181145568e-03
 8.6363229957573e-03
-2.5635332644995e-03
 4.2933174128663e-03
 6.6841063933731e-17
 8.4676189671118e-17
 1.0080369698684e-16
-1.6920688388176e-03
 4.1586914396188e-03
-5.9388567893226e-04
 1.1884375497004e-03
-3.8747731665154e-03
 6.0771155867929e-03
-1.4387106151830e-03
 2.1780468226460e-03
-4.6078592330634e-18
-1.0191500421364e-17
 4.0657581468206e-18
-8.3253630254987e-04
 1.3816141944751e-03
-2.9465862924916e-04
 1.2086803489808e-04
-2.0072493436203e-03
 2.1737659342609e-03
-6.1523045199152e-04
 3.7219094931373e-05
-1.5493249044818e-16
 1.5157146371347e-16
 4.3368086899420e-19
-4.2152011944907e-04
-8.0566803857707e-05
-1.2214991760073e-04
-2.6144916610349e-04
-8.1309814007113e-04
-5.7041120355361e-04
-1.6895962401620e-04
-6.4100013122470e-04
 7.7357825006841e-17
-5.9631119486703e-18
-2.0220370516855e-17
-1.8975044095626e-04
-4.0317736520557e-04
-5.0723607506686e-05
-1.7917727419103e-04
-2.2524423664549e-04
-9.8671442602694e-04
-4.2703354466767e-05
-3.6601231845523e-04
-2.3852447794681e-18
 5.2041704279304e-18
 1.2652639352906e-16
-7.6105632096812e-05
-1.9417360253371e-04
-1.3946594629832e-05
-5.2217487493067e-05
-4.5147770862286e-05
-5.0591643179532e-04
-2.0773147959119e-05
-1.0772323619435e-04
-1.7733481783716e-17
-3.0357660829594e-18
-1.7923894790259e-16
 1.1590942020057e-04
-1.8172357956026e-04
 1.7961915844511e-04
-7.3120904730217e-05
 6.9268049060156e-05
-3.1379266592868e-04
 6.4814232779042e-05
-1.1006288957915e-04
 3.4140171158853e-16
 1.8702487475375e-18
 1.5314355686358e-18
-9.6359907346155e-04
-3.2514917924864e-04
-1.6534256286560e-03
-1.7269325985865e-03
-4.8098898642479e-04
-9.6549924438394e-04
 3.3767415188990e-04
-7.2471618265979e-04
-3.5279938692678e-16
-1.5178830414797e-18
 2.6020852139652e-18
 2.7023383727709e-04
-2.4756565948039e-03
 2.8510895571925e-02
-1.0811628809321e-02
-3.6178230501491e-03
-2.1894641510363e-03
-6.8945791061026e-03
-1.1754903813046e-02
-4.6837533851374e-17
 0.0000000000000e+00
 3.3566899260151e-15
-9.2565174777798e-02
-4.8953571015774e-02
 1.4467885820545e-01
-1.1498177154294e-02
 6.4143780015328e-02
-2.6517944635783e-02
 6.0540812252317e-02
-5.8596453372761e-03
 7.5460471204991e-17
 2.8397423301740e-15
-9.9746599868666e-18
-3.5325380680406e-01
-1.4859506535756e-01
 3.6183403870780e-01
-1.6818090080358e-01
 2.8008144190054e-01
-7.3075410524311e-02
 9.4360916860047e-02
 3.1418060108798e-02
 2.7755575615629e-17
 1.1518563880486e-15
 8.3266726846887e-17
 2.1431552099207e-01
 6.8916906781311e-02
 1.3905134196713e-01
-7.2593505465953e-02
 6.9388939039072e-17
-1.1102230246252e-16
 8.6736173798840e-17
-2.6967131030283e-05
-1.7140486837163e-05
-3.5500408260974e-05
-3.0668995343430e-05
-2.6509829941818e-05
-1.5195706955962e-05
-3.3839703203364e-05
-2.7202909557940e-05
-1.3552527156069e-19
-8.0637536578609e-19
-3.5778671692022e-18
-1.0977319555717e-04
-1.8292526705296e-04
-6.9892791476650e-05
-1.7418107565187e-04
-9.0042451423744e-05
-1.4340532014748e-04
-4.9916304926817e-05
-1.2877282635116e-04
 5.7937053592194e-18
-1.5436328430762e-17
 4.5062152793929e-19
-1.7073132390963e-04
-5.5264317602223e-04
-9.9424877579191e-05
-4.1190324252487e-04
-9.7206462485566e-05
-3.5031346906567e-04
-4.1333787308639e-05
-2.2678845590235e-04
 3.4979072589814e-17
-3.0357660829594e-18
-8.8091426514447e-20
-3.1468009689313e-04
-7.9152321609210e-04
-2.1097713894730e-04
-3.6783046508249e-04
-9.6608194781189e-05
-3.3967629558240e-04
-4.2890698156828e-05
-7.8420500987164e-05
-2.4137050864958e-17
 1.1316360175318e-17
-7.5894152073985e-18
-6.1029515541639e-04
 5.8618470866294e-05
-4.1177843015838e-04
 4.9056168566208e-04
-1.3206248817504e-04
 2.4562142879658e-04
-6.0255041774121e-05
 3.7730365104555e-04
-7.0581561428806e-17
 3.6978070345334e-17
 2.4259023609363e-18
-1.1393640043238e-03
 2.3739059172774e-03
-8.5490160873625e-04
 1.8321826199994e-03
-3.2325001544775e-04
 1.1437873810882e-03
-2.8411524879912e-04
 7.5282379343122e-04
 3.6158142452392e-17
-2.2768245622196e-18
-1.9732479539236e-17
-2.6190403104144e-03
 4.5141486749807e-03
-2.0179283186614e-03
 2.1888853095122e-03
-1.3786939178084e-03
 1.6913017319062e-03
-1.3544257663360e-03
 4.5578532739232e-04
 2.6779793660392e-17
-3.1983964088322e-18
 5.3125906451790e-18
-6.7737875535596e-03
 3.6314094850036e-03
-4.6799321975484e-03
 4.5970291018449e-04
-5.6948166975452e-03
 5.9097187415080e-04
-4.1515856672971e-03
-2.1786533850276e-04
-1.2836953722228e-16
-1.2836953722228e-16
 2.3744027577433e-17
-1.3283563710653e-02
-3.3334098969231e-03
-8.9143413603727e-03
-4.1883192346583e-03
-1.2592630610618e-02
-3.5604793902664e-03
-7.9811690908895e-03
-2.1833215351008e-03
-2.9707139526103e-17
 3.9042120231203e-16
 3.5778671692022e-18
-2.1547270855393e-02
-1.3740362318443e-02
-1.3137464109890e-02
-9.6516963868290e-03
-1.8605041870877e-02
-8.7353395082585e-03
-1.0777149199077e-02
-5.4447698033835e-03
 5.1174342541316e-17
 2.9490299091606e-16
-1.9184957442131e-16
-2.9049078232912e-02
-2.2475705286985e-02
-1.5561872148006e-02
-1.2864351516036e-02
-2.2193247841557e-02
-1.2364002889808e-02
-1.2017600808310e-02
-6.9347214883777e-03
 1.5487828033955e-16
 1.4501204056994e-17
 4.4124317914729e-16
-3.2121951496674e-02
-2.6287981411667e-02
-1.6117246979620e-02
-1.3114341531050e-02
-2.3133401817745e-02
-1.3541542401804e-02
-1.1748382788703e-02
-6.9677127972092e-03
-1.9781268636998e-16
-9.4054538463117e-18
 6.8017423290878e-16
-3.1956773103063e-02
-2.4426122972939e-02
-1.5555708974611e-02
-1.0862928451374e-02
-2.2332556489289e-02
-1.2155134311746e-02
-1.0890507744985e-02
-5.6486298522813e-03
-2.8717805043710e-17
-3.7811550765432e-18
 3.6206592736974e-16
-3.0270319949455e-02
-1.8428878674110e-02
-1.4785732404019e-02
-7.1420594995857e-03
-2.0995170785483e-02
-8.9214822087076e-03
-1.0061841912695e-02
-3.6960111683797e-03
-1.0882679306323e-16
-1.3037531124138e-17
-2.1375384643731e-16
-2.8827918419196e-02
-1.0237810724192e-02
-1.4318343867779e-02
-2.8264956994235e-03
-1.9921360895637e-02
-4.6767569179256e-03
-9.5739833381856e-03
-1.4559646295211e-03
-6.7583064795526e-17
 1.4380586565305e-16
 3.4004476480703e-16
-2.8162820794211e-02
-1.5330793160189e-03
-1.4238612352298e-02
 1.3498070020717e-03
-1.9424961997544e-02
-2.6696440317941e-04
-9.4507223066103e-03
 6.3325603138509e-04
 1.8978281403001e-16
 2.6508743117271e-17
 1.5618609921011e-16
-2.8137341758050e-02
 6.3903284338132e-03
-1.4223699658888e-02
 4.8509403452215e-03
-1.9362758406828e-02
 3.6284852949615e-03
-9.5393065593186e-03
 2.3582923158258e-03
-5.7137454489986e-17
-2.3527187142935e-17
 2.7891100887190e-17
-2.7789061485031e-02
 1.2554121475649e-02
-1.3660413941702e-02
 7.2977939742032e-03
-1.9291930501396e-02
 6.5503955173147e-03
-9.5467360704475e-03
 3.6293916435071e-03
-1.1834066712679e-16
 4.2825985813177e-17
 1.4452414959232e-16
-2.5809110568712e-02
 1.6227380727532e-02
-1.1904356503982e-02
 8.4623310852265e-03
-1.8605681586962e-02
 8.3978352430742e-03
-9.1045748933141e-03
 4.6063638968476e-03
-1.4636729328554e-17
 8.0230960763927e-18
 2.4920386934579e-16
-2.1157266032088e-02
 1.6712566570526e-02
-8.7959255498129e-03
 7.9995566085671e-03
-1.6735766177277e-02
 9.3002813348893e-03
-7.8819749125039e-03
 5.3141931182736e-03
-1.7748389563588e-16
-5.3125906451790e-17
 8.9744834827488e-17
-1.4230109752194e-02
 1.3341717820262e-02
-5.1422290700644e-03
 5.5287180595798e-03
-1.3379811187704e-02
 9.0921051720514e-03
-5.7572813110163e-03
 5.1161875658714e-03
 1.3021268091551e-16
 1.6176296413484e-16
-5.5836411883004e-18
-7.3679556240034e-03
 7.0500537590625e-03
-2.3626488569679e-03
 1.9971736236215e-03
-8.9095741957124e-03
 7.0700347979704e-03
-3.2534120065648e-03
 3.1476997050497e-03
 2.4557179206797e-17
 6.3358064454622e-17
-3.8353651851675e-18
-3.1301967192263e-03
 1.6117282720902e-03
-9.3226188136253e-04
-9.1322098072055e-05
-4.7233573671832e-03
 3.2653420065598e-03
-1.3952184538617e-03
 5.4685210623973e-04
-6.7762635780344e-17
 3.7513395167999e-17
 7.0473141211558e-18
-1.4278515265627e-03
-5.1957673843539e-04
-5.6670420322824e-04
-6.1805997906106e-04
-2.1992517587108e-03
-1.1885738438355e-04
-6.2036366992757e-04
-5.9797933884198e-04
 3.5236570605779e-18
 1.2576745200832e-17
-9.4325589006239e-18
-1.1139310558619e-03
-1.5796931153780e-03
-4.4493106118848e-04
-1.0651633001544e-03
-1.3706604266019e-03
-1.6820773741406e-03
-5.7932011665329e-04
-9.7816858287203e-04
-5.9631119486703e-19
-6.5052130349130e-19
 5.9631119486703e-19
-1.1118112328585e-03
-2.8771391688824e-03
-9.9301630172333e-04
-1.3752762046977e-03
-7.0856621708515e-04
-2.2412763558708e-03
-2.5566964123413e-04
-1.0082117705963e-03
-7.6707303703349e-18
-5.4210108624275e-18
 2.6020852139652e-18
-3.3197040390842e-03
-2.4836376197985e-03
 4.9617110375788e-04
 6.7255439407177e-04
-1.8212917839833e-04
-6.6607577082856e-04
-1.0449285000114e-03
 8.6514769934709e-04
 1.6046192152785e-17
-6.7220534694101e-18
 5.6378512969246e-18
-1.1419020880368e-02
 8.8291993286305e-03
-1.3719327405037e-02
 4.0995902351284e-03
 1.2277265189908e-03
 5.3075505166000e-03
 8.4796486858529e-04
 9.4508847732087e-03
 5.8113236445223e-17
-1.5612511283791e-17
-1.7347234759768e-18
-1.6323304209552e-02
 4.7235132421042e-03
 2.3200961672586e-02
-1.9840013877968e-03
-3.4700277262516e-03
-5.6123784885571e-03
-1.5397659180891e-03
 1.3524073468147e-02
 5.2041704279304e-17
-6.2450045135165e-17
 1.2143064331838e-17
 8.2413338494721e-02
-3.2898821495998e-02
-5.6348934515757e-02
 4.5716144591168e-03
-7.6327832942979e-17
-6.9388939039072e-18
 1.1102230246252e-16
-5.3424036198083e-05
-3.4896873564366e-05
-6.8677735463846e-05
-6.3765259460342e-05
-2.2635965442719e-05
-1.8355097666678e-05
-2.7994491203193e-05
-3.4181416069506e-05
-6.6407383064737e-19
 2.2446373102239e-18
-1.3552527156069e-18
-1.4497920417376e-04
-2.9257859737618e-04
-6.2387701150246e-05
-2.4355997600734e-04
-4.0533277390731e-05
-1.4483176105831e-04
 2.3791245293281e-07
-1.0999195266417e-04
-4.0657581468206e-20
 3.1645150909421e-18
-7.4538899358378e-20
-2.0582571540778e-05
-5.7725136607860e-04
 5.1525280435505e-05
-3.2168513716058e-04
 9.4360412891681e-05
-2.3217991845811e-04
 9.6826739954203e-05
-1.2155870970137e-04
-1.3145951341387e-18
 1.7076184216647e-18
 2.3039296165317e-19
 2.3974599910978e-04
-5.1046193131982e-04
 1.9388229718287e-04
-1.4384795001110e-04
 3.4791813823820e-04
-2.5048994715109e-04
 2.4631610742068e-04
-1.3471717280622e-04
 2.1684043449710e-19
 6.5052130349130e-19
 2.4394548880924e-19
 3.4950439299551e-04
-1.0021082943806e-04
 3.5021475224273e-05
 5.4283390981347e-05
 5.2299590547011e-04
-4.4607879818648e-04
 1.7852841287391e-04
-3.7805283174730e-04
 6.7220534694101e-18
 1.9461428996115e-17
 0.0000000000000e+00
-1.2594132736832e-03
 3.6995057631284e-04
-1.4834881960029e-03
-2.8103605940011e-04
-8.7588380998715e-04
-7.7094575759462e-04
-1.4301117647832e-03
-9.8105108895619e-04
-1.3075478200175e-16
 5.0957502106819e-17
 1.1926223897340e-17
-7.8399548534666e-03
-2.2071361664130e-04
-6.0826575598592e-03
-1.0321943236082e-03
-7.6174595287183e-03
-2.2546725684860e-03
-6.0006320276675e-03
-1.1300818598303e-03
 6.9985250233939e-17
 1.2240642527361e-16
 5.8655337531466e-17
-1.9118874831832e-02
-5.6468356974625e-03
-1.4150328715729e-02
-4.1298728487664e-03
-1.7376225532663e-02
-5.9420546071869e-03
-1.0734462862492e-02
-3.3204694259812e-03
 6.2016364266171e-17
 4.0332320816461e-17
 2.0166160408230e-17
-3.5234662569842e-02
-1.3555014940820e-02
-2.1956532041983e-02
-8.7611650985693e-03
-2.4329288734748e-02
-9.8185136020437e-03
-1.3712317231731e-02
-6.4392088752303e-03
-2.3657291403634e-16
-3.6971294081756e-16
-5.5185890579512e-17
-4.8974013016904e-02
-2.1239002732714e-02
-2.6176503251983e-02
-1.2187983839127e-02
-2.7982929588220e-02
-1.2344492213017e-02
-1.5017251060307e-02
-7.2379691859439e-03
 7.4762516056454e-17
-2.7663418430968e-16
-2.0721814021629e-17
-5.3894981491430e-02
-2.6176637953337e-02
-2.6924743318898e-02
-1.3297361230826e-02
-2.8763182009811e-02
-1.3581663224736e-02
-1.4515740636568e-02
-7.1806478047485e-03
 1.1058862159352e-17
 1.6263032587283e-18
 7.4566004412691e-17
-5.3163088613738e-02
-2.6508239345990e-02
-2.5655242439498e-02
-1.2496029665272e-02
-2.7437269363105e-02
-1.3220229689934e-02
-1.3394807108270e-02
-6.3856737086567e-03
-7.0202090668436e-17
 7.6707303703349e-17
 2.0395198117168e-16
-4.9560955449017e-02
-2.3155947299728e-02
-2.3792056092742e-02
-1.0115793241653e-02
-2.5510742507294e-02
-1.1490904653884e-02
-1.2236857675710e-02
-5.1302800663961e-03
 4.8843307870472e-17
-3.7892865928368e-17
-4.9358303902403e-17
-4.5855970813594e-02
-1.7264158801652e-02
-2.2233867412956e-02
-6.7716646295537e-03
-2.3720565201927e-02
-8.6894109337878e-03
-1.1380357135238e-02
-3.5508485685725e-03
 1.0640089070230e-16
-2.2625944087057e-17
-1.0263328815291e-16
-4.3216494118674e-02
-9.9551388293371e-03
-2.1367645534063e-02
-2.9077320585316e-03
-2.2559416446654e-02
-5.2286447606340e-03
-1.0909993818586e-02
-1.7979623378466e-03
 4.6756218688437e-18
-3.3393426912553e-17
-1.0300259451791e-16
-4.2084136277069e-02
-2.1613112093988e-03
-2.1194011180346e-02
 9.6979946232523e-04
-2.2088606113925e-02
-1.5116545869214e-03
-1.0822111579770e-02
-3.8748986924020e-05
-1.1836777218110e-16
 6.2206099646356e-18
 7.0022519683619e-17
-4.2141252849344e-02
 5.2900652534120e-03
-2.1439869728163e-02
 4.4702362444298e-03
-2.2236483985267e-02
 2.1394908661030e-03
-1.1013293037124e-02
 1.6364014799848e-03
 1.2929110906890e-17
-4.6891743959998e-18
 6.2126478549314e-17
-4.2661930049665e-02
 1.1689299559293e-02
-2.1638969689581e-02
 7.2329207201562e-03
-2.2730161438147e-02
 5.5028795717211e-03
-1.1319461580911e-02
 3.1763246545040e-03
 1.8600843521704e-17
 2.2117724318704e-17
-1.4280975490708e-17
-4.2593491143034e-02
 1.6469944815011e-02
-2.1268803528409e-02
 9.0286511484408e-03
-2.3198783051186e-02
 8.4008163011831e-03
-1.1513386272952e-02
 4.4891945711996e-03
-8.2643310597708e-17
-2.6454533008646e-17
-4.9751327189929e-17
-4.0925602282101e-02
 1.9262961852434e-02
-1.9830858732396e-02
 9.7807358564523e-03
-2.3117084959580e-02
 1.0557257760618e-02
-1.1330838748307e-02
 5.3701316840247e-03
 2.2876665839444e-16
-6.5052130349130e-17
 8.4134088584875e-17
-3.6760875151881e-02
 1.9941394969884e-02
-1.6782492039364e-02
 9.6590956489280e-03
-2.1826424538062e-02
 1.1603266268620e-02
-1.0439342491914e-02
 5.7908144220207e-03
-4.7704895589362e-17
-9.1072982488782e-18
 8.4242508802124e-17
-2.9213770440988e-02
 1.8442902909678e-02
-1.1824556806304e-02
 8.6951127657926e-03
-1.8732263448825e-02
 1.1409375495913e-02
-8.4630091852951e-03
 6.1032316426228e-03
-1.1286544615574e-16
-3.3393426912553e-17
-1.2815269678779e-16
-1.8461086250506e-02
 1.4200657300840e-02
-6.3167709824628e-03
 5.9514667083249e-03
-1.3940169825730e-02
 9.9525408046750e-03
-5.5187742303069e-03
 5.5443128058350e-03
-4.5726226624576e-17
 2.1684043449710e-17
-3.3217244059525e-17
-8.6288753765125e-03
 6.8910393003794e-03
-2.8757491251961e-03
 1.4751765594809e-03
-8.5731786794270e-03
 6.5228915474229e-03
-2.7811537754374e-03
 2.5806142199443e-03
-8.9826149990424e-17
 3.8489177123235e-17
-1.6572030206441e-16
-4.1132581994940e-03
-3.9604336961752e-04
-1.8137500854758e-03
-1.8568486165691e-03
-4.2203685100191e-03
 1.5325419365912e-03
-1.2074014372594e-03
-6.2581285030205e-04
-2.5695591487907e-17
 3.0140820395097e-17
-2.7820627745978e-16
-2.0284688990451e-03
-4.0743323319639e-03
 3.3000663875793e-05
-2.2332508306846e-03
-1.0791391893292e-03
-1.6721676106588e-03
 2.5042268053710e-04
-1.0732519050656e-03
 5.5012418231915e-16
 3.3870475868447e-16
 1.9152431376956e-16
 2.3615140482835e-03
-1.0429499088343e-03
 2.1215921409010e-03
 1.2076720004473e-03
 2.3985242832367e-03
-4.0151293125490e-04
 2.1104393096003e-03
 8.2086599599052e-04
-3.8207284558389e-16
 9.2048764444019e-17
 3.2526065174565e-18
 3.0459230421602e-03
 5.6675785867224e-03
 2.4207321522161e-03
 4.4508581749767e-03
 4.9175330427573e-03
 3.1728085721761e-03
 4.0537196948698e-03
 5.0791858864336e-03
-5.8546917314217e-18
-6.8955258170078e-17
-9.0639301619788e-17
-4.2750896557724e-03
 1.2499042849015e-02
-1.1744018323956e-02
 6.8028544282441e-03
-2.3063964690095e-04
-1.5031865746735e-03
-1.1333853900091e-03
-1.6933929158299e-02
 7.8062556418956e-18
 2.4286128663675e-17
-5.3776427755281e-17
-1.0023798713870e-01
 1.7383495160214e-02
-6.3300298049427e-03
-2.2962848987866e-03
 1.3530843112619e-16
-1.9081958235745e-17
 1.2490009027033e-16
-2.6563015312425e-05
-2.3524410780434e-05
-3.5148959362658e-05
-4.3767429229402e-05
-3.4397209214276e-06
-4.4516307453613e-06
-2.2438622375165e-06
-8.5424668532785e-06
-2.7105054312138e-20
-4.4892746204478e-19
 3.0493186101155e-19
 2.3673533451785e-05
-2.0096123353240e-04
 8.4013990481260e-05
-1.4909247272765e-04
 6.5594159736060e-05
-5.1897217968524e-05
 7.7033738423271e-05
-5.1237065656795e-05
 1.9109063290057e-18
-3.5236570605779e-18
 9.6222942808088e-19
 4.6080543186650e-04
-4.4050293015802e-04
 4.1183814264561e-04
-2.6958664981858e-04
 3.8546594172756e-04
-2.2603072353183e-04
 3.0198045249230e-04
-2.0453263737186e-04
-3.5778671692022e-18
-3.5236570605779e-19
-1.4907779871676e-18
 1.0675218524020e-03
-1.0866664527116e-03
 6.3157770226654e-04
-8.2246486338677e-04
 7.9890602985666e-04
-8.3873551414221e-04
 4.2557896863471e-04
-7.0675836373024e-04
-2.2768245622196e-18
-4.3910187985663e-18
 1.7347234759768e-18
-2.0062086053330e-04
-2.3999407547153e-03
-9.5197146307013e-04
-2.4133489462326e-03
-6.4132069110978e-04
-2.0647417367089e-03
-1.4781776596731e-03
-1.9465626788981e-03
-8.6736173798840e-19
 6.8304736866587e-18
 9.8662397696181e-18
-8.0525873691013e-03
-5.2051188119462e-03
-6.7196393506421e-03
-4.2975761807043e-03
-8.5573582251230e-03
-5.1875251286748e-03
-7.1007473470979e-03
-2.9576205100428e-03
 1.4961989980300e-17
 2.9056618222612e-17
 1.0191500421364e-17
-2.1919752319167e-02
-1.3040444856888e-02
-1.6584335512396e-02
-7.4267553461134e-03
-1.8779138970626e-02
-1.0174837425199e-02
-1.1157896067084e-02
-5.8264711484384e-03
-1.4593361241655e-16
 6.9822619908066e-17
 7.8713077722448e-17
-4.0741462743339e-02
-2.0009350526852e-02
-2.4839332413641e-02
-1.1294848286916e-02
-2.4006373593274e-02
-1.3461498406139e-02
-1.3064213815191e-02
-8.0461967865091e-03
-1.4886095828226e-16
-5.7462715141732e-18
-1.6967763999398e-16
-5.4203306371909e-02
-2.4935202510300e-02
-2.8414407971736e-02
-1.3316204953213e-02
-2.6275845254887e-02
-1.4172806489908e-02
-1.3834381626040e-02
-7.7392349142968e-03
 2.8373570853946e-16
-6.4401609045639e-17
 3.2200804522820e-16
-5.7528758575122e-02
-2.7603413300657e-02
-2.8490433403814e-02
-1.3559411413155e-02
-2.6758152221674e-02
-1.4229404312848e-02
-1.3424822903986e-02
-7.0534004012543e-03
-1.4419888894057e-17
-2.0599841277225e-17
 4.3259666682172e-17
-5.5920265122246e-02
-2.7350530730812e-02
-2.7053671437559e-02
-1.3084342225000e-02
-2.5775210653251e-02
-1.3578912363701e-02
-1.2668429611374e-02
-6.4589456064184e-03
 9.4976110309730e-17
 2.2659825404947e-17
 1.1565726674989e-16
-5.2389178938380e-02
-2.5033368699177e-02
-2.5149518610395e-02
-1.1611371487163e-02
-2.4408290012786e-02
-1.2258666521203e-02
-1.1894550444524e-02
-5.5488094187694e-03
-2.7212119276671e-16
 1.1126624795132e-16
 5.8931809085450e-16
-4.8556050612206e-02
-2.1103894066368e-02
-2.3421655195025e-02
-9.3765784546349e-03
-2.3016737016775e-02
-1.0318682191582e-02
-1.1186290582614e-02
-4.4629384280626e-03
-6.3066685120766e-17
-3.9410748969848e-17
 8.8647080127846e-17
-4.5452887894225e-02
-1.5903575564529e-02
-2.2141064566357e-02
-6.5104278797037e-03
-2.1849864517066e-02
-7.8035310144369e-03
-1.0653943627624e-02
-3.0960672192606e-03
 1.8011308590415e-17
 6.6922379096668e-17
 7.4403374086818e-17
-4.3359304168728e-02
-9.8481601746947e-03
-2.1447208610494e-02
-3.3062469674121e-03
-2.1063598496283e-02
-4.9148137648522e-03
-1.0333507438077e-02
-1.6318874679300e-03
-8.5719734262135e-17
-1.0055975149803e-17
-1.9725703275658e-16
-4.2481949560980e-02
-3.4083605734061e-03
-2.1327792042320e-02
-2.1666076634119e-05
-2.0698595517558e-02
-1.8495326381842e-03
-1.0238440178171e-02
-1.3015493847490e-04
 2.6495190590114e-17
-2.5017965130103e-17
-2.4733362059826e-17
-4.2638259706344e-02
 2.9654063256892e-03
-2.1677160385933e-02
 3.0988038740531e-03
-2.0744809772168e-02
 1.1977872926927e-03
-1.0332107253163e-02
 1.2873351785885e-03
-5.5158785525200e-17
 4.8789097761848e-18
-1.2471035489014e-16
-4.3544134845917e-02
 8.9282199134466e-03
-2.2296947781722e-02
 5.9059824859844e-03
-2.1109744142336e-02
 4.1054487366496e-03
-1.0553906492696e-02
 2.5746068151804e-03
-6.9985250233939e-17
 2.4936649967167e-18
-7.7161313363078e-17
-4.4701498993028e-02
 1.4293642837281e-02
-2.2891773641982e-02
 8.3355510261924e-03
-2.1655515485463e-02
 6.8100905986581e-03
-1.0826034684065e-02
 3.7086445203869e-03
-1.3422422895371e-16
-2.3635607360184e-17
-5.5456941122634e-17
-4.5431692450553e-02
 1.8947695413551e-02
-2.3004869202405e-02
 1.0354254929126e-02
-2.2167878406719e-02
 9.3170459171645e-03
-1.1031469978704e-02
 4.7866511869970e-03
 8.0298723399708e-17
 6.3805297850772e-17
-6.8128554013558e-17
-4.4704460877426e-02
 2.2618685459093e-02
-2.2065607813560e-02
 1.1778121452465e-02
-2.2334948901033e-02
 1.1637833892935e-02
-1.0978148359669e-02
 5.8855987293285e-03
 9.2590865530262e-17
 4.9873299934333e-18
-1.1137466816857e-16
-4.1391757956895e-02
 2.4615837458597e-02
-1.9643514440209e-02
 1.2218046533235e-02
-2.1689321285720e-02
 1.3531013332537e-02
-1.0415269858150e-02
 6.6651864022802e-03
 9.1235612814655e-17
-1.4311468676809e-17
 8.3483567281384e-18
-3.4910090602128e-02
 2.3833642878959e-02
-1.5272632664393e-02
 1.1366198585918e-02
-1.9374555646579e-02
 1.4243062555302e-02
-8.9006936961979e-03
 6.7928958996646e-03
 6.5052130349130e-18
-3.9031278209478e-18
 7.9255178808690e-17
-2.4597559938826e-02
 1.9396292462131e-02
-8.6949855352705e-03
 8.8674729063172e-03
-1.4400641235227e-02
 1.3063924246507e-02
-5.7522333097140e-03
 6.5779193888425e-03
-9.1072982488782e-18
-2.4286128663675e-17
 3.0791341698588e-17
-1.0833545038622e-02
 1.1463175974079e-02
-2.0913352645522e-03
 3.9688364011710e-03
-7.2108658629446e-03
 9.7779868546182e-03
-1.6342991032054e-03
 4.5695076001131e-03
-3.4694469519536e-18
 1.6263032587283e-17
 1.6978606021123e-16
 9.7782035283522e-04
 3.5722031004362e-03
 2.4940901072807e-03
 4.9228736745022e-04
 2.7597748893982e-04
 5.4927969334440e-03
 1.9013496725471e-03
 1.5964514294495e-03
-2.0708261494473e-17
-3.7838655819744e-17
 2.0166160408230e-17
 9.5316329145199e-03
 3.1708690396339e-03
 7.0137345920234e-03
 2.8723264612012e-03
 6.9081601971135e-03
 4.2473416973725e-03
 5.3511799457873e-03
 2.0021919200097e-03
-8.5651971626355e-18
-1.3444106938820e-17
-7.1557343384043e-18
 1.8024767198110e-02
 9.3646807415926e-03
 1.2175262652061e-02
 5.0581882206586e-03
 1.3281878202854e-02
 7.0926658493908e-03
 9.4017107323658e-03
 5.5164979561546e-03
 8.1315162936413e-18
 1.5178830414797e-18
-1.7184604433895e-17
 2.6617245274737e-02
 1.3614430619075e-02
 7.6914766010143e-03
 4.7658879213515e-03
 1.6800833136422e-02
 4.8404927558971e-03
 5.5197594994292e-03
-1.6385763577240e-03
 2.9056618222612e-17
 0.0000000000000e+00
 2.0925101928970e-17
-6.8856721715704e-03
 5.9508326424762e-05
-7.3218540636333e-04
 1.5203012987186e-04
 3.9356538861224e-17
 6.3967928176645e-18
 1.0408340855861e-17
-2.6885974946100e-06
 6.1015425953381e-07
 2.5421023396033e-06
 4.6147004661989e-07
 7.1986359762022e-07
 3.4006995320302e-06
 5.4300203377045e-06
 5.7766756405009e-06
 2.2903770893756e-18
-5.1838416371963e-19
 4.2690460541617e-19
 2.3308105870456e-04
-1.0899215481300e-04
 2.9169051082145e-04
-1.1112501954424e-04
 1.8037354295486e-04
-6.1607578947243e-05
 1.8461072171158e-04
-1.0093421477364e-04
-8.6736173798840e-19
 1.4230153513872e-18
 0.0000000000000e+00
 1.0511924326552e-03
-8.3582811544974e-04
 8.4285340931434e-04
-7.1512251760630e-04
 7.2210315041621e-04
-5.7940351504127e-04
 5.4161686595167e-04
-5.1973540066069e-04
-3.7947076036993e-18
-2.1684043449710e-18
-1.1926223897341e-18
 5.1749385454533e-04
-2.8190662023576e-03
-4.4941778165969e-04
-2.9733798677940e-03
-1.7193441455832e-04
-2.0769033738157e-03
-1.0555912760408e-03
-2.1270542765464e-03
 1.6371452804531e-17
 7.4267848815257e-18
-2.0599841277225e-18
-7.4110223241062e-03
-7.7159433384887e-03
-6.6395866781321e-03
-6.8477499240522e-03
-7.9520403902782e-03
-6.5259979637546e-03
-7.1535410371855e-03
-4.4993075138144e-03
 7.3725747729014e-18
-8.6736173798840e-19
 2.7213474529386e-17
-2.2529003006499e-02
-1.9617261083849e-02
-1.6839007878077e-02
-1.1249996785985e-02
-1.8041473388052e-02
-1.3612645453764e-02
-1.0710945739463e-02
-7.8749057625362e-03
-1.1362438767648e-16
 4.0332320816461e-17
-3.8814437774981e-17
-4.0447668407396e-02
-2.8133341220300e-02
-2.4098164476951e-02
-1.5072033671999e-02
-2.1893477456459e-02
-1.7213892960986e-02
-1.1451552733170e-02
-9.4159857736713e-03
 4.3584927333917e-17
 1.6154612370034e-17
 3.6537613212761e-17
-5.1003736920086e-02
-3.0565859061138e-02
-2.6088924905518e-02
-1.5508231666601e-02
-2.2703729691699e-02
-1.6703077531517e-02
-1.1749952602038e-02
-8.4536929867340e-03
-4.5861751896137e-17
-1.0191500421364e-17
-3.1441863002080e-18
-5.1786735099370e-02
-3.0353720277930e-02
-2.5446073161227e-02
-1.4378164529262e-02
-2.3311050643457e-02
-1.5408999048744e-02
-1.1723823772115e-02
-7.1545888622282e-03
-1.6913553890774e-17
-3.3393426912553e-17
 1.6263032587283e-17
-4.9945575344662e-02
-2.8404573033971e-02
-2.4552176465496e-02
-1.3358979226894e-02
-2.3069343652395e-02
-1.4066926681058e-02
-1.1394534162001e-02
-6.6198720104609e-03
 3.8028391199929e-17
-1.3606737264693e-17
-1.1072414686508e-17
-4.8231045155592e-02
-2.5674100651965e-02
-2.3530691223181e-02
-1.2104108064818e-02
-2.2449365297376e-02
-1.2590767920741e-02
-1.1125853773734e-02
-5.8578835797505e-03
-6.8440262138147e-18
 5.3993268189778e-17
-2.6901766404797e-17
-4.6068495236540e-02
-2.2517145981538e-02
-2.2472435392166e-02
-1.0406963990164e-02
-2.1775839288892e-02
-1.0975667046805e-02
-1.0728282530920e-02
-4.9950125057876e-03
-2.0870891820346e-17
-1.7943545954635e-17
-6.2815963368379e-18
-4.4005788282540e-02
-1.8610849092408e-02
-2.1467080381070e-02
-8.2983050228336e-03
-2.0984973863733e-02
-9.0233900407695e-03
-1.0332352939784e-02
-3.9239168941663e-03
-6.8304736866587e-18
 8.7752613335546e-17
-2.1240198185349e-17
-4.2108857592709e-02
-1.3966889440489e-02
-2.0659760473241e-02
-5.7783898817547e-03
-2.0285606028949e-02
-6.7387776246139e-03
-9.9848765656674e-03
-2.7017465063039e-03
 1.4589295483508e-17
-1.5063633933970e-16
 2.9226024812062e-17
-4.0751260776865e-02
-8.7260784871290e-03
-2.0152395529786e-02
-3.0252722795581e-03
-1.9736403109960e-02
-4.1949172666191e-03
-9.7524132742421e-03
-1.3847137856970e-03
-8.7329096861918e-17
 1.9502086577583e-17
-4.3154634596712e-17
-4.0024703404406e-02
-3.1764895487925e-03
-1.9975452233526e-02
-1.7312557514515e-04
-1.9421080942834e-02
-1.5191184385213e-03
-9.6462029576116e-03
-3.4928164708958e-05
 2.9456417773715e-17
-5.6107462426125e-18
-1.2515758828630e-17
-3.9945417978629e-02
 2.3878021588928e-03
-2.0090004855382e-02
 2.6131823796618e-03
-1.9327560994725e-02
 1.1619821790347e-03
-9.6537257431919e-03
 1.2892038805461e-03
 4.5021495212461e-17
-1.9312351197398e-17
 3.8489177123235e-18
-4.0357900606374e-02
 7.7301534375209e-03
-2.0409660614071e-02
 5.2367889080074e-03
-1.9416708361632e-02
 3.7509231629453e-03
-9.7328795674656e-03
 2.5420582913540e-03
 7.0147880559812e-17
-1.4609624274242e-17
-2.5072175238727e-18
-4.1047826909875e-02
 1.2734339974109e-02
-2.0819795525567e-02
 7.6403616476171e-03
-1.9612995646298e-02
 6.2049613566062e-03
-9.8329154524919e-03
 3.6971341786511e-03
-5.8804415330182e-17
-6.7437375128598e-17
 6.8765522789893e-17
-4.1730210274842e-02
 1.7417841812062e-02
-2.1194817216662e-02
 9.8263336924447e-03
-1.9849646913826e-02
 8.5569445829696e-03
-9.9100330020008e-03
 4.7347905021411e-03
 1.1870658536001e-16
 2.6454533008646e-17
 1.7618285302889e-18
-4.2093162099850e-02
 2.1857065540054e-02
-2.1333845174678e-02
 1.1842473537911e-02
-2.0043181259183e-02
 1.0900187341988e-02
-9.9362646267807e-03
 5.6544062936155e-03
-5.0496716183512e-17
 7.3996798272136e-18
-1.6818686200681e-16
-4.1601998535587e-02
 2.5961686945358e-02
-2.0715593198001e-02
 1.3686348874757e-02
-1.9976842174486e-02
 1.3319473880681e-02
-9.8035452928116e-03
 6.5957039838693e-03
 8.3890143096066e-17
-1.6805133673525e-18
-2.2735719557021e-16
-3.8957474861750e-02
 2.9110487673261e-02
-1.8451655872480e-02
 1.4977686052276e-02
-1.9159059410100e-02
 1.5760408074491e-02
-9.1899194846476e-03
 7.6631091846337e-03
 4.2419409998495e-17
 4.3151246464923e-17
 1.5856456772600e-17
-3.2279793702482e-02
 2.9883657241257e-02
-1.3712632241433e-02
 1.4963161507609e-02
-1.6706629890734e-02
 1.7659527801055e-02
-7.6191773849317e-03
 8.2703485498712e-03
 7.8713077722448e-17
-1.5829351718288e-17
 1.3563369177794e-16
-2.0367913885417e-02
 2.6675724185287e-02
-5.4897493043735e-03
 1.3387282769699e-02
-1.0964403160500e-02
 1.8008973315397e-02
-3.9513742164914e-03
 8.6632205044914e-03
-1.8106176280508e-16
 1.8041124150159e-16
-5.8763757748714e-17
-1.9501626691962e-03
 2.1202427532247e-02
 4.9789640771434e-03
 1.0622921609787e-02
-1.3808842236784e-03
 1.6616296955960e-02
 1.8444252781080e-03
 8.5410197158069e-03
-6.7220534694101e-17
-2.7321894746635e-17
-1.8431436932254e-18
 1.8441572058443e-02
 1.8330970970078e-02
 1.3900059098745e-02
 9.3557643957638e-03
 9.3997995985759e-03
 1.4694792009380e-02
 7.1850004643181e-03
 6.8769131383144e-03
-1.4907779871676e-17
 1.6100402261410e-17
 2.9327668765733e-17
 3.3754944356964e-02
 2.1146147849318e-02
 2.1179484526129e-02
 1.1493248200644e-02
 1.8785261144693e-02
 1.4833128137092e-02
 1.1811257436484e-02
 7.8449260719595e-03
 3.6754453647259e-17
 6.8304736866587e-18
-3.7188134516253e-17
 4.5129324336822e-02
 2.3957658003600e-02
 1.5235040140281e-02
 8.7838198953012e-03
 2.3298964061798e-02
 1.1351549989901e-02
 9.1123562518192e-03
-6.5804378504275e-04
-2.6020852139652e-17
 3.2526065174565e-18
-1.1058862159352e-17
-3.8704494733786e-03
 3.3925106778292e-03
 4.2310874349312e-03
 2.3110100860180e-04
 3.8597597340484e-17
 1.3010426069826e-17
-1.7347234759768e-18
 1.2260051849455e-05
-1.7341300412310e-07
 5.0636030340473e-05
 8.2789240130054e-08
 1.4572952171665e-05
-3.7474685998795e-06
 3.4324590832247e-05
-1.6025108177997e-05
 2.1684043449710e-19
 1.6940658945086e-18
-4.0657581468206e-19
 5.7179336503005e-04
-2.9607666644013e-04
 6.7755793038504e-04
-2.8352048817037e-04
 4.4385674478486e-04
-2.0693417286233e-04
 4.5862276555575e-04
-2.1432198185056e-04
 3.6320772778264e-18
-5.1499603193061e-19
 3.2526065174565e-19
 9.9422395535760e-04
-1.9023541416071e-03
 3.1057892197606e-04
-2.1831304894260e-03
 4.4400256204313e-04
-1.3289977254187e-03
-1.7362382262664e-04
-1.5215991115857e-03
-1.4853569763051e-17
-1.0299920638612e-18
-5.8546917314217e-18
-5.1680826721486e-03
-7.1306857501907e-03
-5.4519192127017e-03
-7.4508391313302e-03
-5.7662524258846e-03
-5.8434626620780e-03
-5.9849892882631e-03
-4.9959493209446e-03
 8.1315162936413e-18
-1.6479873021780e-17
-1.2793585635329e-17
-2.0680185648886e-02
-2.2179797995282e-02
-1.5497770912155e-02
-1.3890270475095e-02
-1.5873522969844e-02
-1.4980039855441e-02
-1.0105927173395e-02
-9.0916422047567e-03
 1.8214596497756e-17
 2.5153490401664e-17
-9.3241386833753e-18
-3.7314079461329e-02
-3.4724270944985e-02
-2.2277241397579e-02
-1.8306935983801e-02
-1.9910974557717e-02
-2.0201379976872e-02
-1.0035500999699e-02
-1.0569356304387e-02
-3.6537613212761e-17
-1.9949319973733e-17
-1.4961989980300e-17
-4.5920106012542e-02
-3.6336940451607e-02
-2.3085493187595e-02
-1.8193650033325e-02
-1.9571400703015e-02
-1.9428657934089e-02
-9.9788747735801e-03
-9.3921170626245e-03
 2.3418766925687e-17
 1.4094628242312e-17
-8.8904578143811e-18
-4.5066336553795e-02
-3.4125316880310e-02
-2.1947586466071e-02
-1.5885836622317e-02
-2.0279992201040e-02
-1.7084411363818e-02
-1.0286146976839e-02
-7.8071020495045e-03
-6.9388939039072e-17
 4.3801767768414e-17
-1.3010426069826e-18
-4.3216117129131e-02
-3.0760759643030e-02
-2.1593902058751e-02
-1.4205842645339e-02
-2.0524929387903e-02
-1.5332817820107e-02
-1.0134066719658e-02
-7.1608721793695e-03
 3.6862873864507e-17
-1.0299920638612e-18
-1.0760706561919e-17
-4.3071296087469e-02
-2.7298103049777e-02
-2.1410406726978e-02
-1.2883338917305e-02
-2.0254654699215e-02
-1.3588520806986e-02
-1.0107324827146e-02
-6.4462799905130e-03
 3.6076827289455e-17
 2.6549400698739e-17
 5.2034928015726e-17
-4.2486070999310e-02
-2.4194132399259e-02
-2.0977535145813e-02
-1.1299550225601e-02
-2.0018106026384e-02
-1.1974761722092e-02
-9.9622808572661e-03
-5.5826131684427e-03
-7.0588337692384e-17
-2.0030635136670e-17
 4.1606258369131e-17
-4.1461473526375e-02
-2.0828695772010e-02
-2.0399055177073e-02
-9.5473585480477e-03
-1.9609071614184e-02
-1.0253260406318e-02
-9.7150051522732e-03
-4.6678255711043e-03
 5.8675666322200e-17
-4.3117365147033e-17
-6.8758746526315e-17
-4.0227326391559e-02
-1.6978339305815e-02
-1.9763002332947e-02
-7.4868853276371e-03
-1.9115512519306e-02
-8.2991032355579e-03
-9.4532528019044e-03
-3.6096601528612e-03
-1.5653168865259e-18
 9.1784490164476e-17
 1.2242336593256e-16
-3.8992916834367e-02
-1.2600823272521e-02
-1.9216001136874e-02
-5.1744746981512e-03
-1.8643907563614e-02
-6.1218329714627e-03
-9.2136602944635e-03
-2.4706953697802e-03
-1.1892681392629e-16
-2.4326786245143e-17
 5.8878954229541e-17
-3.8035198820602e-02
-7.7911790557295e-03
-1.8830903919847e-02
-2.6716115474414e-03
-1.8255229721774e-02
-3.7579452191618e-03
-9.0428807205996e-03
-1.2558555204407e-03
 4.0860869375547e-17
-4.5265440701270e-17
-3.9749562148750e-17
-3.7439243222153e-02
-2.7175773249226e-03
-1.8641570938684e-02
-7.7629589213757e-05
-1.8006809995654e-02
-1.2846180781683e-03
-8.9515038362435e-03
-1.1976621266285e-05
-6.6193930762029e-17
 1.4091240110523e-17
 1.1785616428096e-16
-3.7236243185134e-02
 2.4306334534501e-03
-1.8624585425064e-02
 2.5159225496054e-03
-1.7896045660905e-02
 1.2264282340038e-03
-8.9359947421173e-03
 1.2386529211170e-03
 6.3649443788477e-17
 3.9285388093654e-17
 4.4448900940117e-17
-3.7335303568703e-02
 7.4877893702734e-03
-1.8722349989774e-02
 5.0376249673150e-03
-1.7895357539317e-02
 3.7125196444325e-03
-8.9715679011704e-03
 2.4742675547742e-03
-3.2515900779198e-17
-7.7622099286384e-18
-1.1252324484505e-16
-3.7598727784605e-02
 1.2342502745959e-02
-1.8858383118932e-02
 7.4495409815540e-03
-1.7944248655453e-02
 6.1348426217940e-03
-9.0208566980863e-03
 3.6878594139154e-03
 2.1717924767600e-17
-1.8051966171884e-17
 2.0115338431395e-17
-3.7855479887725e-02
 1.6966724417983e-02
-1.8957819547445e-02
 9.7416574220119e-03
-1.7971994610548e-02
 8.4792693930105e-03
-9.0384168636888e-03
 4.8687616039302e-03
 2.6108943566167e-17
-5.1093027378379e-18
 4.2981839875472e-17
-3.7923394482924e-02
 2.1457457248644e-02
-1.8941476279689e-02
 1.1934802238613e-02
-1.7914221906267e-02
 1.0779073475710e-02
-8.9800003169955e-03
 6.0103094461965e-03
 1.6208822478658e-17
-1.1899118843028e-16
-4.4696234560715e-17
-3.7550046643283e-02
 2.6065712901875e-02
-1.8686509514699e-02
 1.4095107196482e-02
-1.7735719290329e-02
 1.3171781397345e-02
-8.8278568105338e-03
 7.1120277814529e-03
-9.1344033031904e-17
 9.8987658347927e-17
-1.8385358339923e-16
-3.6302427909412e-02
 3.1016060785461e-02
-1.7814022248903e-02
 1.6370168453790e-02
-1.7351569713412e-02
 1.5910385115357e-02
-8.5635381943163e-03
 8.2438469281882e-03
-9.3702172757060e-17
 2.0507684092563e-16
-2.2497195079074e-17
-3.3115665397109e-02
 3.6007052876588e-02
-1.5242042495934e-02
 1.8755658238774e-02
-1.6323790458244e-02
 1.9216324998033e-02
-7.8627158725695e-03
 9.7695933742159e-03
 2.4746914586982e-17
 2.3044717176179e-16
 1.0522182083972e-16
-2.5474440834333e-02
 4.0063075990133e-02
-9.6984695032081e-03
 2.0824678476345e-02
-1.3791807523233e-02
 2.2894999569407e-02
-6.1456831653679e-03
 1.1496904183115e-02
-1.0928757898654e-16
 7.4267848815257e-17
-4.0007060164715e-17
-1.1445649906800e-02
 4.1515682090259e-02
-3.1738958920213e-04
 2.2012767496300e-02
-8.2976403473509e-03
 2.5890310403938e-02
-2.4124169685500e-03
 1.3050133901219e-02
 5.6053252317501e-17
-1.5829351718288e-17
-4.6403852982380e-17
 9.0414538030501e-03
 4.0521052703699e-02
 1.1625440173782e-02
 2.1164857257544e-02
 7.8544951603021e-04
 2.6823214068996e-02
 3.5945574254632e-03
 1.3941963885368e-02
 2.0480579038251e-16
 6.1582683397177e-17
 1.8344700758455e-16
 3.1122011318851e-02
 3.9068572556358e-02
 2.0494933801385e-02
 1.7501452461474e-02
 9.6460129062592e-03
 2.4261660169190e-02
 8.4368765769867e-03
 1.0623990863419e-02
 1.3606737264693e-17
 8.7278274885083e-18
-2.8731357570866e-18
 4.1926233964297e-02
 3.0998526156594e-02
 1.9320664341116e-02
 1.3693002359545e-02
 1.4890351481796e-02
 1.7541921321755e-02
 7.3016561453301e-03
 4.0846054353025e-03
 3.2526065174565e-18
-5.9631119486703e-18
-8.8904578143811e-18
-8.1287899340605e-03
 1.0272544571803e-03
-1.7045218749871e-02
 1.0862638238116e-03
-6.0715321659188e-18
 9.9746599868666e-18
 1.2359904766335e-17
 7.5983156129555e-05
-2.9167580257561e-05
 2.1872035447690e-04
-2.3797602441089e-05
 7.3247153710376e-05
-2.3656500167613e-05
 1.3533801228038e-04
-4.2135710699109e-05
 1.1384122811098e-18
-1.3552527156069e-20
 5.4210108624275e-19
 9.5441944383928e-04
-7.8756774518490e-04
 9.7813912907063e-04
-8.9965946212533e-04
 5.9937996586257e-04
-5.2981259501728e-04
 5.8584146871565e-04
-6.2487184993698e-04
 4.5536491244391e-18
 8.1315162936413e-19
 3.2526065174565e-19
-1.8387720243547e-03
-4.5393752035449e-03
-3.1636367336909e-03
-5.7900484262916e-03
-2.6147169037969e-03
-3.6746980908702e-03
-3.6460831098138e-03
-4.0459555005650e-03
 1.7509865085641e-17
-1.3173056395699e-17
 9.1615083575025e-18
-1.6152440366769e-02
-1.9538649607828e-02
-1.2768435727913e-02
-1.4531866275277e-02
-1.2357502312618e-02
-1.3552993088798e-02
-9.1475002722383e-03
-9.3743418193260e-03
-1.9515639104739e-17
 3.2959746043559e-17
-4.3368086899420e-19
-3.2496179056377e-02
-3.8052560421444e-02
-2.0031983041918e-02
-2.0519718685307e-02
-1.7985987752510e-02
-2.1932055182051e-02
-9.1789079708420e-03
-1.1528282582411e-02
 1.9515639104739e-17
-5.2041704279304e-18
-3.8380756905987e-17
-4.0835649129471e-02
-4.1789466251835e-02
-2.0694872696376e-02
-2.0873328830987e-02
-1.7357769198114e-02
-2.2109184895003e-02
-8.4717236125300e-03
-1.0478184991229e-02
 1.0874547790030e-16
 2.3852447794681e-17
-6.0606901441940e-17
-3.9775577255430e-02
-3.8311472371465e-02
-1.9073734743656e-02
-1.8002140665914e-02
-1.7523619874197e-02
-1.9201753097626e-02
-9.0488731016549e-03
-8.8275220481435e-03
 4.9331198848091e-17
-1.3227266504323e-17
 2.9056618222612e-17
-3.7539716961284e-02
-3.4351778879749e-02
-1.8846976208022e-02
-1.5722449089139e-02
-1.8170288805237e-02
-1.7040787645886e-02
-8.9781819387014e-03
-7.9503512201882e-03
 2.9842664797663e-17
-1.0698364937001e-16
-5.7869290956414e-18
-3.7963749281090e-02
-3.0223893483246e-02
-1.9120522327554e-02
-1.4241426502679e-02
-1.7962815014727e-02
-1.5218680287782e-02
-8.9274163273671e-03
-7.2439243044613e-03
 1.2075301696057e-17
-2.3201926491190e-17
 2.1304572689340e-17
-3.8237953568569e-02
-2.6832831274717e-02
-1.9017158168492e-02
-1.2608297900044e-02
-1.7872580874496e-02
-1.3426212129800e-02
-8.9534345663367e-03
-6.3087327516627e-03
-1.0076303940537e-16
-2.0823457975300e-17
 4.5675404647741e-17
-3.7811515696724e-02
-2.3514428121978e-02
-1.8743277735767e-02
-1.0874845672276e-02
-1.7753192990256e-02
-1.1691649581182e-02
-8.8261911538154e-03
-5.4090516596546e-03
-2.3403520332636e-17
-5.0245994431125e-18
 4.6163295625359e-17
-3.7171119850555e-02
-1.9908897533277e-02
-1.8352584944997e-02
-9.0262507006287e-03
-1.7467815952330e-02
-9.8455244628255e-03
-8.6705393300406e-03
-4.4431262590052e-03
 9.2563760475950e-18
 9.1377914349794e-18
-7.4227191233789e-17
-3.6331060793493e-02
-1.5991338968455e-02
-1.7928526645221e-02
-6.9767351424161e-03
-1.7151077077756e-02
-7.8608313132342e-03
-8.4936987226882e-03
-3.4033342316206e-03
 3.8123258890022e-17
-2.8772015152334e-17
 1.0884712185397e-16
-3.5514001169240e-02
-1.1721542249084e-02
-1.7552530073028e-02
-4.7648853881128e-03
-1.6831781641884e-02
-5.7286347900227e-03
-8.3325804679930e-03
-2.3026282819245e-03
-1.3524405662220e-16
-2.0809905448144e-17
 8.3600457828105e-17
-3.4840388601850e-02
-7.1541358522325e-03
-1.7273320002324e-02
-2.4101942248649e-03
-1.6568609044953e-02
-3.4697947672715e-03
-8.2094513806936e-03
-1.1496682280523e-03
 2.3782652279827e-16
-6.4235590587977e-17
-1.4933190860093e-17
-3.4394869765734e-02
-2.3763662456346e-03
-1.7115251321139e-02
 2.2635838035967e-05
-1.6390445949185e-02
-1.1222815814005e-03
-8.1360874579843e-03
 3.2321190204243e-05
-4.9907181252223e-17
-3.0493186101155e-17
 7.6565002168211e-17
-3.4193994982914e-02
 2.5015834268629e-03
-1.7068017882389e-02
 2.4827826592286e-03
-1.6306015913870e-02
 1.2753275002151e-03
-8.1117962657231e-03
 1.2282035015119e-03
-5.0422177284154e-17
 2.8594138233411e-17
 1.1234197979434e-16
-3.4196897953457e-02
 7.3839444812549e-03
-1.7095700876444e-02
 4.9276554145195e-03
-1.6300911324890e-02
 3.6901080744833e-03
-8.1254448637651e-03
 2.4258014174450e-03
 1.2790197503540e-17
 3.1236881028844e-17
-6.5438377373078e-17
-3.4317586886274e-02
 1.2209297396318e-02
-1.7142224186646e-02
 7.3459544385628e-03
-1.6340770234080e-02
 6.1025208083070e-03
-8.1580358461366e-03
 3.6245545126832e-03
 2.6854332559750e-17
 2.3418766925687e-17
 1.1190999299124e-16
-3.4444260765312e-02
 1.6963253445695e-02
-1.7137853568530e-02
 9.7549397763714e-03
-1.6372670364603e-02
 8.5100802429032e-03
-8.1836061531533e-03
 4.8423500984001e-03
 3.6815440019461e-17
-1.4596749373444e-16
 1.1447142062373e-16
-3.4446961926982e-02
 2.1687707855207e-02
-1.7012370591306e-02
 1.2191125418156e-02
-1.6330789182575e-02
 1.0932775639414e-02
-8.1671582491083e-03
 6.1155239799149e-03
-1.1734455638082e-16
-3.6083603553033e-17
 3.5297556977981e-17
-3.4191152103396e-02
 2.6529426796053e-02
-1.6708289417538e-02
 1.4694799810229e-02
-1.6153657606480e-02
 1.3423532865142e-02
-8.0705273357467e-03
 7.4823836074955e-03
-2.9375102610779e-18
 9.7090304546077e-17
-5.3695112592345e-17
-3.3500391858844e-02
 3.1898712900130e-02
-1.6151090467693e-02
 1.7354602096646e-02
-1.5829302641066e-02
 1.6136347439872e-02
-7.8805980290113e-03
 9.0027277062887e-03
-1.3201516702727e-16
 6.3859507959396e-17
-4.6241222656507e-17
-3.1996456563959e-02
 3.8552643164490e-02
-1.5138239585010e-02
 2.0480013650882e-02
-1.5441086751565e-02
 1.9457721565286e-02
-7.6692969565215e-03
 1.0783743615320e-02
 2.5370330836161e-17
-8.4242508802124e-17
 1.3042952135001e-16
-2.8927353264226e-02
 4.6833677017918e-02
-1.2884788095977e-02
 2.4431705290169e-02
-1.4919814943653e-02
 2.3884139895131e-02
-7.2945626999967e-03
 1.3185237376803e-02
 1.0717338475019e-16
-2.8406096919120e-17
-2.7863995832878e-17
-2.2457024296266e-02
 5.5517274456310e-02
-8.3062286881255e-03
 2.8613230657228e-02
-1.3794858883273e-02
 2.9221902730529e-02
-6.2199742048392e-03
 1.5954218589865e-02
-4.5644911461640e-17
-6.3642667524899e-17
-2.9571614254542e-17
-1.1239954342367e-02
 6.0583901416633e-02
-1.2107727170565e-03
 3.0667947401528e-02
-1.1193900210614e-02
 3.3224932882646e-02
-3.8241958631886e-03
 1.7256346431976e-02
 4.8138576458356e-17
 6.1799523831674e-17
 1.0733601507607e-16
 2.2965638947757e-03
 5.5645268792835e-02
 6.4478225134221e-03
 2.5389202547409e-02
-6.8139613665252e-03
 3.1407915184601e-02
 1.2834619452917e-04
 1.4622494958871e-02
 5.1824863844807e-17
-7.6544673377477e-17
-3.5995512126519e-17
 1.1128297073366e-02
 3.6447513119953e-02
 7.6186376939455e-03
 8.8826630473307e-03
-4.1341020963301e-03
 2.0130044993065e-02
 1.2209326506465e-03
 6.7138051166182e-03
-1.3227266504323e-17
 1.1709383462843e-17
-1.4853569763051e-17
-3.8814120455504e-02
 2.3249865662400e-04
-3.3078103738887e-02
 2.1572203158726e-03
-2.1684043449710e-19
-7.8604657505199e-18
-1.7130394325271e-17
 2.5470735704569e-04
-1.0345355278896e-04
 6.2816793450082e-04
-8.3277070169530e-05
 2.1702159216464e-04
-6.2173721402326e-05
 4.3074385906205e-04
-5.7492471192022e-05
 9.0422461185291e-17
-1.0842021724855e-19
-5.4210108624275e-19
 3.3537604284326e-04
-1.7898706237705e-03
-4.2920088159271e-04
-2.7236273718021e-03
-1.6534103277666e-04
-1.3543812853518e-03
-9.4343898224958e-04
-1.9421847300500e-03
-1.9624059321988e-17
-6.2341624917916e-19
-2.8731357570866e-18
-9.5170778396274e-03
-1.2377516120436e-02
-8.8824207974238e-03
-1.2215633252236e-02
-7.8704830984542e-03
-9.1222004012961e-03
-7.1870942300878e-03
-8.0888582907752e-03
 2.6020852139652e-18
-2.3852447794681e-18
 9.5409791178724e-18
-2.5968654011149e-02
-3.6048928938522e-02
-1.7099521738330e-02
-2.1415971806661e-02
-1.5233234717456e-02
-2.1304499103489e-02
-8.7730393268011e-03
-1.2216222417326e-02
 5.1824863844807e-17
-1.7780915628762e-17
-4.1199682554449e-18
-3.5821050726717e-02
-4.6261480232714e-02
-1.8894323547920e-02
-2.3198406628239e-02
-1.5967590039409e-02
-2.4518940511642e-02
-7.3096811741422e-03
-1.1604710159510e-02
 1.4262679579047e-16
-4.0982842119952e-17
 1.7021974108022e-17
-3.5563322386011e-02
-4.2831882605466e-02
-1.6901388257147e-02
-2.0521138785682e-02
-1.5090848911569e-02
-2.1624958488859e-02
-7.7717325891911e-03
-9.9590462581602e-03
-1.1817803680092e-17
 3.3827107781548e-17
 3.8814437774981e-17
-3.2987862617649e-02
-3.8377924337556e-02
-1.6350390583296e-02
-1.7611019897146e-02
-1.5824635569061e-02
-1.8961638377958e-02
-7.9591308541040e-03
-8.9208197231585e-03
-1.4826464708739e-17
 1.0842021724855e-19
-3.2119489359883e-17
-3.3062621594247e-02
-3.4030530132977e-02
-1.6768701777374e-02
-1.5979032845110e-02
-1.5778968488149e-02
-1.7103659434292e-02
-7.7736859655886e-03
-8.1037677567508e-03
-4.4235448637409e-17
 4.4289658746033e-17
 2.0816681711722e-17
-3.3693492424732e-02
-3.0194504390465e-02
-1.6853701988318e-02
-1.4268731690322e-02
-1.5635472131976e-02
-1.5196466420299e-02
-7.8329490600311e-03
-7.1829774674654e-03
 2.1097896650210e-17
 2.7931758468658e-17
 1.8041801776517e-17
-3.3597034074944e-02
-2.6715914008783e-02
-1.6722281532013e-02
-1.2436637632959e-02
-1.5645722914087e-02
-1.3358981189931e-02
-7.8145070667830e-03
-6.2235846279321e-03
 6.9656601450405e-17
-3.2255014631444e-18
-5.0564478819293e-17
-3.3301509341932e-02
-2.3090955514192e-02
-1.6539617871842e-02
-1.0613794266760e-02
-1.5536984119137e-02
-1.1500213408329e-02
-7.7277796287660e-03
-5.2877166657339e-03
 1.0631957553936e-17
-6.0850846930749e-18
 6.4054325537265e-17
-3.2872339727703e-02
-1.9310804886253e-02
-1.6276321155244e-02
-8.6850427940703e-03
-1.5349018290465e-02
-9.5769439758495e-03
-7.6295826259667e-03
-4.2976002628308e-03
-2.0682850506055e-17
 1.1481192786853e-16
-3.0205194899088e-17
-3.2323658070212e-02
-1.5329823720066e-02
-1.5998052190445e-02
-6.6412111797831e-03
-1.5142922959456e-02
-7.5705085690672e-03
-7.5137234083513e-03
-3.2661970731027e-03
-1.0812036758522e-16
 6.6190542630240e-17
-2.1040298409797e-17
-3.1790102149031e-02
-1.1119473087433e-02
-1.5743244509540e-02
-4.4815285850746e-03
-1.4932590308149e-02
-5.4649144250689e-03
-7.4087080020604e-03
-2.1879051991647e-03
 8.3259950583309e-17
 2.5244969959967e-17
 6.6348090758429e-18
-3.1337267424973e-02
-6.6987327739980e-03
-1.5548724778998e-02
-2.2196745068754e-03
-1.4759314349135e-02
-3.2710950652977e-03
-7.3262452267500e-03
-1.0724573020440e-03
 8.7442599276850e-17
-2.5749801596531e-18
-7.3784193002375e-17
-3.1031059245855e-02
-2.1129453994533e-03
-1.5432024929604e-02
 1.1133528641949e-04
-1.4641077872454e-02
-1.0066129204560e-03
-7.2769319655066e-03
 7.0876742043424e-05
-1.7394245088341e-16
-7.5589220212974e-18
-4.4620848628409e-17
-3.0887631747845e-02
 2.5778212897052e-03
-1.5392568172620e-02
 2.4814617627271e-03
-1.4589628008480e-02
 1.3079251637897e-03
-7.2619566995797e-03
 1.2326096671274e-03
 2.6960211678157e-17
 5.4210108624275e-18
 5.7600781512134e-17
-3.0892341761266e-02
 7.3230524619845e-03
-1.5412383123813e-02
 4.8680421434710e-03
-1.4601527141565e-02
 3.6566963819418e-03
-7.2767160717859e-03
 2.4070579847262e-03
-2.1496002135420e-17
 3.2497266054358e-17
 2.9490722608079e-17
-3.0998147636247e-02
 1.2099381233675e-02
-1.5460292822951e-02
 7.2676313363900e-03
-1.4664499579283e-02
 6.0345895493672e-03
-7.3118012111024e-03
 3.5950007744390e-03
-6.0894892644006e-17
 1.0018705700124e-17
 1.7178336390086e-16
-3.1140403786047e-02
 1.6922354463460e-02
-1.5496367816279e-02
 9.7025408582567e-03
-1.4759861806851e-02
 8.4539644934356e-03
-7.3566182165052e-03
 4.8079847504425e-03
-1.2647895968401e-17
 2.5214476773866e-17
-1.0299920638612e-18
-3.1250825552235e-02
 2.1851067383977e-02
-1.5475937268983e-02
 1.2231594093805e-02
-1.4865601443489e-02
 1.0947413929616e-02
-7.4015880989577e-03
 6.0738690042115e-03
 1.6970474504829e-16
-1.8187491443444e-17
 1.2387009820647e-16
-3.1277737099934e-02
 2.6994515843214e-02
-1.5356092065492e-02
 1.4955207256719e-02
-1.4955308584490e-02
 1.3567317301401e-02
-7.4330749644958e-03
 7.4523128009361e-03
 6.0105457937165e-17
 3.8963515573698e-17
 1.0705141200579e-16
-3.1211488537252e-02
 3.2567573343591e-02
-1.5135728640207e-02
 1.7995752917159e-02
-1.5017379749565e-02
 1.6389922552014e-02
-7.4389433821551e-03
 9.0269287713625e-03
 1.9488534050427e-17
 2.9456417773715e-17
 5.4094912143449e-17
-3.1129897634166e-02
 3.9103575524173e-02
-1.4888546181439e-02
 2.1510323644009e-02
-1.5129359440664e-02
 1.9571687296888e-02
-7.4633392886270e-03
 1.0907789804044e-02
 1.3786985875869e-16
 9.9231603836736e-17
-3.2580275283189e-17
-3.1090449916039e-02
 4.7674532915092e-02
-1.4714970416961e-02
 2.5834526136776e-02
-1.5589848263659e-02
 2.3508734129640e-02
-7.7294227199403e-03
 1.3228522036393e-02
 1.5182896172944e-16
 4.4452289071906e-18
 7.6720856230505e-17
-3.0935916928190e-02
 5.8580854438478e-02
-1.4312372334559e-02
 3.0951291661097e-02
-1.6736393267109e-02
 2.8582474843033e-02
-8.3204543276985e-03
 1.6044960407971e-02
-1.5501380561111e-16
-1.2576745200832e-17
 9.9611074597106e-17
-2.9755506535208e-02
 6.7960266877776e-02
-1.2908293152222e-02
 3.4106704490590e-02
-1.8407158917142e-02
 3.3474629932635e-02
-8.6688177935770e-03
 1.7970500422031e-02
-1.1328557449758e-16
 2.4936649967167e-18
-2.6359665318554e-17
-2.6832169203214e-02
 6.5811994870073e-02
-9.9628294160197e-03
 2.9555104545416e-02
-1.9806432409256e-02
 3.3194204476232e-02
-7.9158948840510e-03
 1.5309392443058e-02
-8.1315162936413e-18
-1.2143064331838e-17
-6.0173220572946e-18
-2.5734305272563e-02
 4.0324362446540e-02
-6.9719265851083e-03
 1.0604247644977e-02
-2.0438440202575e-02
 2.2526828998860e-02
-5.9471582990014e-03
 7.2374713672012e-03
 7.6978354246471e-18
 3.8163916471490e-17
-1.6696713456277e-17
-7.4453471848788e-02
 2.3354598619605e-03
-4.6718031772357e-02
 3.9761482086860e-03
-5.9847959921200e-17
 3.0140820395097e-17
-1.6913553890774e-17
 3.8070556885850e-04
-2.5411990462132e-04
 9.8884946939259e-04
-3.4548143759494e-04
 2.1884871047639e-04
-1.7026929380259e-04
 5.9729669435352e-04
-2.5871799611288e-04
 1.9515639104739e-18
 2.1684043449710e-19
 2.3852447794681e-18
-2.8824199714463e-03
-4.5697557784884e-03
-4.4148434760993e-03
-6.6338683007814e-03
-3.0883778288349e-03
-3.5401208273846e-03
-3.9825802549185e-03
-4.6735728054585e-03
-1.2251484549086e-17
 3.0357660829594e-18
-1.3335686721572e-17
-1.7902555798431e-02
-2.6261651449610e-02
-1.3092684867809e-02
-1.9505879234195e-02
-1.1107099860912e-02
-1.6482066477716e-02
-7.9769207329097e-03
-1.1680374460877e-02
-6.5052130349130e-19
 2.1250362580716e-17
-1.7455654977017e-17
-3.0242481631120e-02
-4.7254419703712e-02
-1.7159054652971e-02
-2.5039484871897e-02
-1.4752979764395e-02
-2.5555946626982e-02
-6.9829696574679e-03
-1.2766232509559e-02
-3.5887091909270e-17
 4.7596475372114e-17
-1.8323016715005e-17
-3.1857204772939e-02
-4.7859538369398e-02
-1.5400198905085e-02
-2.3063064630293e-02
-1.3337220464763e-02
-2.4327814003404e-02
-6.3021573030682e-03
-1.1119120369813e-02
-6.8304736866587e-17
 2.7755575615629e-17
 8.4567769453869e-18
-2.9260102133804e-02
-4.2413616920239e-02
-1.4132235070036e-02
-1.9836667210768e-02
-1.3421544663203e-02
-2.1054012304013e-02
-6.9773743405861e-03
-9.9204601183942e-03
-2.8839777788114e-17
-9.9746599868666e-18
-2.4231918555051e-17
-2.8529753252428e-02
-3.8168782177177e-02
-1.4426034400136e-02
-1.7792096491831e-02
-1.3686630707468e-02
-1.8988424415738e-02
-6.7397209024875e-03
-9.0483227928644e-03
 1.3145951341387e-17
-1.2869479787403e-16
 1.5541360516222e-17
-2.9128883522418e-02
-3.3981576207005e-02
-1.4654678796796e-02
-1.6143452039160e-02
-1.3467707720736e-02
-1.7138286563988e-02
-6.6954700202757e-03
-8.0984717743178e-03
-1.2780033108173e-17
-4.1253892663073e-17
 1.5397026102010e-16
-2.9235260113950e-02
-3.0299086813407e-02
-1.4586053114318e-02
-1.4215738679638e-02
-1.3465353444417e-02
-1.5183431782663e-02
-6.7462708197894e-03
-7.1326558323363e-03
 1.3518645838179e-18
-2.6034404666808e-17
-1.2410726743170e-17
-2.9096372420113e-02
-2.6586131273596e-02
-1.4505320102918e-02
-1.2330914949075e-02
-1.3457057624009e-02
-1.3294367940350e-02
-6.7091349475845e-03
-6.1736099447103e-03
-1.4784282467966e-16
 1.9037912522488e-17
-3.7688730988080e-17
-2.8918511657501e-02
-2.2791330040938e-02
-1.4381507578397e-02
-1.0436440248725e-02
-1.3367870930381e-02
-1.1366800983877e-02
-6.6586835418434e-03
-5.2049779566232e-03
-2.0840398634245e-17
 6.2904054794893e-17
 5.5480658045157e-17
-2.8630154493790e-02
-1.8912947039261e-02
-1.4208469367851e-02
-8.4647065250465e-03
-1.3250967432839e-02
-9.4036694402817e-03
-6.5950407817894e-03
-4.2049675693363e-03
-1.0573088764102e-17
 3.1574847174799e-17
 1.5339766674775e-17
-2.8282011660139e-02
-1.4893684878487e-02
-1.4027093778681e-02
-6.4215129110039e-03
-1.3118085914300e-02
-7.3837120778375e-03
-6.5214065172370e-03
-3.1762244103391e-03
 7.2121467326915e-17
 6.5933044614275e-18
-6.9514299915266e-17
-2.7939476104343e-02
-1.0718929920110e-02
-1.3858601117677e-02
-4.2943058947458e-03
-1.2985455171758e-02
-5.2957418902864e-03
-6.4546969337300e-03
-2.1136361878860e-03
 3.2266026059758e-17
 3.5584192927332e-16
 1.9635917783249e-17
-2.7651251103514e-02
-6.3913311674213e-03
-1.3729579372816e-02
-2.0931695640343e-03
-1.2878183822124e-02
-3.1444775757237e-03
-6.4033570177173e-03
-1.0230402727132e-03
 6.8321677525532e-17
 8.7210512249303e-18
-2.6178823784315e-17
-2.7463482397145e-02
-1.9344987472678e-03
-1.3653726438445e-02
 1.6694048315458e-04
-1.2811120608944e-02
-9.3814579325624e-04
-6.3760896784970e-03
 9.1807949985423e-05
-5.2582111299652e-17
-5.3491824685004e-17
 6.3107342702234e-17
-2.7396906933262e-02
 2.6203336364645e-03
-1.3635553965736e-02
 2.4692871484149e-03
-1.2795909198189e-02
 1.3125929174791e-03
-6.3764475972477e-03
 1.2263937564967e-03
-4.3599326894021e-17
-2.5790459177999e-17
 1.5640971590819e-16
-2.7454601014021e-02
 7.2480585079262e-03
-1.3669579628909e-02
 4.8037821519529e-03
-1.2836339563876e-02
 3.6001013881961e-03
-6.4050648435057e-03
 2.3794649411855e-03
-7.3956140690667e-17
-2.4343726904089e-17
-3.1850132882656e-17
-2.7623201987772e-02
 1.1943367342596e-02
-1.3744503491253e-02
 7.1718815829058e-03
-1.2932445452350e-02
 5.9238779089430e-03
-6.4605372490973e-03
 3.5544300490926e-03
 3.6574882662441e-17
-2.8372215601230e-17
 1.5385506453927e-17
-2.7882422262486e-02
 1.6732190067422e-02
-1.3847845190467e-02
 9.5915715122033e-03
-1.3084407536098e-02
 8.2957836083608e-03
-6.5422438021727e-03
 4.7615252252484e-03
-9.3354889248685e-17
-2.1467203015213e-17
-6.1667386691902e-17
-2.8215312995051e-02
 2.1682744412161e-02
-1.3972143651822e-02
 1.2103176868948e-02
-1.3300072130278e-02
 1.0744756286231e-02
-6.6541546882633e-03
 6.0196978666198e-03
 3.4958743799080e-17
-1.9447876468959e-17
-1.1000586292581e-16
-2.8624930072574e-02
 2.6911847805501e-02
-1.4126865126551e-02
 1.4782099011313e-02
-1.3605282780588e-02
 1.3320157017926e-02
-6.8109438103505e-03
 7.3570341580478e-03
-3.3949080525952e-18
-2.4421653935236e-17
-2.0203429857910e-17
-2.9178552771619e-02
 3.2572578455849e-02
-1.4359167211937e-02
 1.7753174595100e-02
-1.4052087496737e-02
 1.6085486963045e-02
-7.0362091814644e-03
 8.8186486261748e-03
 8.9992168448086e-17
 3.8787332720669e-17
-8.2660251256653e-17
-3.0094659296218e-02
 3.8867772825306e-02
-1.4814609047821e-02
 2.1170672128107e-02
-1.4739929078871e-02
 1.9100727385700e-02
-7.3651309312055e-03
 1.0463650771953e-02
-7.1137215042205e-17
 5.9360068943581e-17
-3.9864758629576e-17
-3.1867945055332e-02
 4.6245391339831e-02
-1.5776481538749e-02
 2.5194802946544e-02
-1.5893370059104e-02
 2.2452731487400e-02
-7.9225381674490e-03
 1.2372090885840e-02
 7.5595996476552e-17
-2.3147716382566e-17
 9.8933448239302e-18
-3.5120120283374e-02
 5.5431208373889e-02
-1.7483531820131e-02
 2.9842921551619e-02
-1.7950160627180e-02
 2.6352132933256e-02
-9.0350587709978e-03
 1.4579657662153e-02
 8.7454457738112e-17
 1.1058862159352e-17
-1.3528810233546e-17
-3.9936866398502e-02
 6.4728316754540e-02
-1.9499004618263e-02
 3.3263938991922e-02
-2.1191572176832e-02
 3.0338847894525e-02
-1.0663487152232e-02
 1.6359827303560e-02
-3.1428310474924e-17
-1.3183898417424e-16
-1.8051966171884e-17
-4.5053463839700e-02
 6.4978178788566e-02
-2.0321410373295e-02
 2.9276222716312e-02
-2.5004149926474e-02
 3.0675260584411e-02
-1.1755595214535e-02
 1.4647132642012e-02
 4.2988616139050e-17
 8.6736173798840e-18
-3.1414757947767e-17
-4.9408991744985e-02
 4.2552713051969e-02
-1.8667757541479e-02
 1.1583516079440e-02
-2.8223893397068e-02
 2.2245277366724e-02
-1.0747078428384e-02
 7.9161465985926e-03
 5.4210108624275e-19
 8.9988780316297e-18
 1.3769367590566e-17
-9.6069489722868e-02
 5.9363874704559e-03
-5.3172977216214e-02
 5.1931536557817e-03
 3.0357660829594e-17
-5.3993268189778e-17
 2.6020852139652e-17
-2.8297526025733e-04
-5.6962341070621e-04
-8.7656059525099e-05
-1.1838961713142e-03
-3.9825513445635e-04
-4.1111482441147e-04
-6.2157286332520e-04
-8.9594459816533e-04
 2.8189256484623e-18
-6.7220534694101e-18
 5.3125906451790e-18
-9.3411491979277e-03
-1.0999558879855e-02
-8.4046261274300e-03
-1.2527432429660e-02
-6.7056071036298e-03
-7.5398055620113e-03
-5.8980268726083e-03
-8.0420321471930e-03
-2.9923979960600e-17
-2.5587171270658e-17
 8.6736173798840e-19
-2.2868810020354e-02
-3.9602352714918e-02
-1.4564315216437e-02
-2.4880693053916e-02
-1.2116474623028e-02
-2.2335997327145e-02
-7.1447356448076e-03
-1.3409287048365e-02
-1.4961989980300e-17
-1.7997756063259e-17
-4.8789097761848e-17
-2.8462185889413e-02
-5.1819916938340e-02
-1.4444908668370e-02
-2.5525756290591e-02
-1.2510496770901e-02
-2.6706368698839e-02
-5.2546038213990e-03
-1.2372053853099e-02
-8.5543551409106e-17
 3.4477629085039e-17
 8.1315162936413e-19
-2.6007107491303e-02
-4.6894269016843e-02
-1.2364172781020e-02
-2.2263536969263e-02
-1.1254982650769e-02
-2.3425151282834e-02
-5.7078082877524e-03
-1.0877428213426e-02
 3.6103932343767e-17
-2.8622937353617e-17
-2.2985086056693e-17
-2.4479970723885e-02
-4.2104545601259e-02
-1.2123258357244e-02
-1.9686510690065e-02
-1.1502644072436e-02
-2.0868447086322e-02
-5.8315704252720e-03
-1.0007708729070e-02
-1.2495430037895e-16
 1.0348709736374e-16
-1.6536116009477e-16
-2.4652922148000e-02
-3.8003676201654e-02
-1.2443444315585e-02
-1.8009249991735e-02
-1.1414365728626e-02
-1.9020368071493e-02
-5.6128985977182e-03
-9.0438098851848e-03
-3.4586049302288e-17
 2.1705727493160e-16
-5.1933284062056e-17
-2.4879801075222e-02
-3.4052553015535e-02
-1.2449332020397e-02
-1.6139504831301e-02
-1.1293459280012e-02
-1.7128884322645e-02
-5.6415902820817e-03
-8.0764941111369e-03
 2.0384694908622e-17
-5.4277871260056e-17
-7.0337615939997e-18
-2.4809645074434e-02
-3.0314650331967e-02
-1.2384606054903e-02
-1.4175824827362e-02
-1.1316397907137e-02
-1.5164309669942e-02
-5.6590719996024e-03
-7.1074760344061e-03
 5.5843188146582e-17
-2.0172936671808e-17
 9.9583969542794e-17
-2.4732572242115e-02
-2.6467059127007e-02
-1.2342607125373e-02
-1.2263466875652e-02
-1.1290836444402e-02
-1.3240959748320e-02
-5.6304056103045e-03
-6.1380992597293e-03
-6.3527471044073e-20
 4.9415902142816e-18
 7.4162816729797e-17
-2.4616369176520e-02
-2.2595022792231e-02
-1.2258849941558e-02
-1.0319468527484e-02
-1.1234240291799e-02
-1.1281054685456e-02
-5.6032991953003e-03
-5.1521185942107e-03
 1.9713844814397e-17
-4.0745672894721e-17
-4.0149361699854e-17
-2.4430749605706e-02
-1.8655805000691e-02
-1.2150585451272e-02
-8.3263658410715e-03
-1.1164398362439e-02
-9.2951930131822e-03
-5.5639015919411e-03
-4.1473261086651e-03
 6.1380242522783e-18
 1.4471557903840e-17
 2.5126385347352e-17
-2.4215655491609e-02
-1.4615055319162e-02
-1.2036579618645e-02
-6.2822145947052e-03
-1.1082781751952e-02
-7.2676139072403e-03
-5.5202192370842e-03
-3.1204494007113e-03
-3.5148479179264e-17
-1.6273196982650e-17
-4.1292009145700e-17
-2.4004080256631e-02
-1.0464225105842e-02
-1.1932214597110e-02
-4.1781644110870e-03
-1.1004221615735e-02
-5.1924326910235e-03
-5.4812858975453e-03
-2.0698218865789e-03
-1.2149840595416e-17
 1.2573018255864e-16
 4.4600519837675e-18
-2.3833659112086e-02
-6.2016351261320e-03
-1.1856264701120e-02
-2.0197592151021e-03
-1.0944464363092e-02
-3.0713794647070e-03
-5.4542086342195e-03
-9.9812351164985e-04
-1.8606137477625e-17
 6.9947980784260e-18
-5.4760680039990e-19
-2.3737895924768e-02
-1.8395652407577e-03
-1.1821119746395e-02
 1.8570705987031e-04
-1.0916861847363e-02
-9.0872638119421e-04
-5.4461376606696e-03
 9.2535881876188e-05
-1.8796508132520e-17
-1.7862230791699e-17
-2.9611424803063e-17
-2.3740061099403e-02
 2.6056641794412e-03
-1.1834959579005e-02
 2.4291843029687e-03
-1.0933319110052e-02
 1.2898936034738e-03
-5.4621798162060e-03
 1.1998250221978e-03
-1.3071920661797e-16
-6.9622720132514e-17
-5.7308555145332e-17
-2.3854991487269e-02
 7.1216249703241e-03
-1.1901664226036e-02
 4.7064249574191e-03
-1.1003254298942e-02
 3.5203984414416e-03
-5.5065138545558e-03
 2.3232714476080e-03
 1.1303824087698e-16
 2.9002408113987e-18
-6.7573747433106e-17
-2.4092877501388e-02
 1.1708645934519e-02
-1.2024125463261e-02
 7.0211774035442e-03
-1.1136104383638e-02
 5.7828399832740e-03
-5.5834902711354e-03
 3.4655290155143e-03
 2.1275773569134e-17
 4.0386530925085e-18
 2.1062321266425e-17
-2.4467523235849e-02
 1.6387113593851e-02
-1.2208824176254e-02
 9.3885217984280e-03
-1.1344935351360e-02
 8.0841453905372e-03
-5.6997557558134e-03
 4.6339208806501e-03
 3.4938415008345e-17
-4.0705015313253e-17
 3.4148980301504e-17
-2.5008195482165e-02
 2.1203915395084e-02
-1.2473028236444e-02
 1.1836050494821e-02
-1.1652631022344e-02
 1.0439931234787e-02
-5.8674321317369e-03
 5.8408204399285e-03
-4.3334205581530e-17
 2.1582399496040e-17
-6.8284408075853e-17
-2.5776272798481e-02
 2.6236817297544e-02
-1.2854999133060e-02
 1.4403037718410e-02
-1.2101505214901e-02
 1.2874601867905e-02
-6.1092191897387e-03
 7.1020566580273e-03
 1.5165277887641e-17
-1.6208822478658e-17
-3.5507621148900e-18
-2.6888427351722e-02
 3.1590042421946e-02
-1.3433536340362e-02
 1.7141084332081e-02
-1.2768466168723e-02
 1.5417379767392e-02
-6.4676347961097e-03
 8.4288674004256e-03
 3.7310107260657e-17
 1.0842021724855e-18
 6.3452932144714e-17
-2.8571193657754e-02
 3.7349274827896e-02
-1.4365926437193e-02
 2.0113451926989e-02
-1.3780678999012e-02
 1.8083245522083e-02
-7.0073257793979e-03
 9.8159493242065e-03
-6.1663998560113e-18
-3.9031278209478e-18
 3.6903531445975e-17
-3.1282682766516e-02
 4.3541641069155e-02
-1.5950873802737e-02
 2.3373976083491e-02
-1.5336771764453e-02
 2.0838510782625e-02
-7.8220374941225e-03
 1.1234233983345e-02
-4.7975946132484e-18
-2.9869769851976e-17
-4.7732000643674e-17
-3.5797523903725e-02
 5.0286907636828e-02
-1.8515737557429e-02
 2.6909641053351e-02
-1.7735929423708e-02
 2.3642618609659e-02
-9.0913303715041e-03
 1.2679252299904e-02
 1.4853569763051e-17
 4.6078592330634e-17
 9.5409791178724e-18
-4.2656736433059e-02
 5.7027759959407e-02
-2.1857780149727e-02
 2.9684226801393e-02
-2.1245410405982e-02
 2.6279284396784e-02
-1.0942789059861e-02
 1.3835316631599e-02
 1.7989624546966e-16
 3.6700243538634e-17
 7.7981241256020e-17
-5.0970977869987e-02
 5.7806422323550e-02
-2.4521683779390e-02
 2.6761491415215e-02
-2.5494639296440e-02
 2.6490558344253e-02
-1.2637130763160e-02
 1.2696731910118e-02
-2.8622937353617e-17
 9.7523985415071e-17
 7.2370495013407e-17
-5.8670187240217e-02
 3.9775089510892e-02
-2.4906193681979e-02
 1.1582652643541e-02
-2.9600670501644e-02
 2.0219893103614e-02
-1.2891361396115e-02
 7.5124405243567e-03
 1.0950441942104e-16
 6.9605779473569e-17
-1.2576745200832e-17
-1.0288291689482e-01
 7.4852940228371e-03
-5.2635192539697e-02
 5.6901489701175e-03
 7.8062556418956e-17
 3.7947076036993e-17
 9.5409791178724e-18
-2.2848793161352e-03
-1.2238269749636e-03
-3.3671611043573e-03
-2.8605549233092e-03
-1.8360800396273e-03
-8.9069665056041e-04
-2.8008744898682e-03
-2.0615603971983e-03
-3.2526065174565e-17
 9.2157184661268e-18
 3.5778671692022e-18
-1.5087041989515e-02
-2.0119067099537e-02
-1.0447304816445e-02
-1.8324831730922e-02
-8.4920363807512e-03
-1.2146465286351e-02
-6.0464632539556e-03
-1.0615467086419e-02
 3.9248118643975e-17
-2.2334564753201e-17
 8.5651971626355e-18
-2.3830581621267e-02
-4.8033208245453e-02
-1.3565456818661e-02
-2.7244310442953e-02
-1.1437147140910e-02
-2.5515996910635e-02
-5.5765530178995e-03
-1.3657650630051e-02
 5.6920614055489e-17
-2.8189256484623e-18
-5.0957502106819e-17
-2.3436566535858e-02
-5.2025615069537e-02
-1.1188156898283e-02
-2.4763685040995e-02
-9.9009162449590e-03
-2.6163401345920e-02
-4.1601198135055e-03
-1.1899021880659e-02
 6.2233204700668e-17
-8.8904578143811e-18
-4.1308102771698e-17
-2.0799462621419e-02
-4.5887476278690e-02
-1.0020592549316e-02
-2.1724970416301e-02
-9.2593755634027e-03
-2.2802863936599e-02
-4.8093780984644e-03
-1.0845393214602e-02
 6.4564239371512e-17
 7.1557343384043e-18
-2.2822455730820e-17
-2.0364586226680e-02
-4.1847940017593e-02
-1.0174735885015e-02
-1.9788475549888e-02
-9.3159922754182e-03
-2.0804524658319e-02
-4.6410133373911e-03
-1.0007930136382e-02
 4.1809546276472e-17
 4.0549161250958e-17
 8.1992789294216e-18
-2.0512525661239e-02
-3.7925041243348e-02
-1.0304255540159e-02
-1.8064889698110e-02
-9.1763586466982e-03
-1.9017669293824e-02
-4.5323960347616e-03
-9.0169363850947e-03
 4.7840420860923e-17
-1.3254371558635e-17
-1.6154612370034e-17
-2.0518892862469e-02
-3.4091335077775e-02
-1.0252583272519e-02
-1.6107064717232e-02
-9.1433136891510e-03
-1.7106138372856e-02
-4.5749265016184e-03
-8.0672136388102e-03
-1.7383995989679e-16
 7.0608666483119e-18
-9.0815484472817e-17
-2.0463604499675e-02
-3.0288120352601e-02
-1.0224278499008e-02
-1.4160047163557e-02
-9.1596015570872e-03
-1.5152171467998e-02
-4.5782465903557e-03
-7.0939583208798e-03
 1.3830353962768e-17
-4.9449783460706e-17
-1.6336216233925e-16
-2.0432075997050e-02
-2.6391592824581e-02
-1.0204625175913e-02
-1.2219984019339e-02
-9.1457003256323e-03
-1.3208336915198e-02
-4.5657165101431e-03
-6.1158025037997e-03
 1.7165122676108e-16
-9.8665785827970e-17
-7.5784037790842e-18
-2.0364254763976e-02
-2.2475884330632e-02
-1.0155006572633e-02
-1.0248505685183e-02
-9.1201612127634e-03
-1.1232295508400e-02
-4.5540757766957e-03
-5.1216915497889e-03
 1.0503208545953e-18
 6.6746196243639e-19
 1.8741535694243e-16
-2.0257750179688e-02
-1.8499017013632e-02
-1.0093271273620e-02
-8.2432015828999e-03
-9.0844803002597e-03
-9.2325492457679e-03
-4.5333887132557e-03
-4.1134965478449e-03
-1.6058897646994e-17
-1.1073261719456e-16
 1.4790889324955e-17
-2.0134173086831e-02
-1.4447074245055e-02
-1.0027458020248e-02
-6.1991041075657e-03
-9.0408595872873e-03
-7.2012765293525e-03
-4.5108303111050e-03
-3.0885403986360e-03
-3.3365474825294e-17
 5.9400726525050e-17
-7.0337615939997e-18
-2.0014902894360e-02
-1.0314896358722e-02
-9.9698553887926e-03
-4.1127094185640e-03
-9.0003332017545e-03
-5.1361923581652e-03
-4.4917809578919e-03
-2.0468306512669e-03
 1.3389473313722e-17
 1.3355676699127e-16
 8.4766822196474e-18
-1.9928135682250e-02
-6.1019857284919e-03
-9.9341710450371e-03
-1.9869520254474e-03
-8.9741926337865e-03
-3.0386669880240e-03
-4.4822521442285e-03
-9.8990275274957e-04
-1.7134629490007e-17
 3.6696855406845e-17
 3.8965209639592e-17
-1.9900715228900e-02
-1.8159883553750e-03
-9.9321316308583e-03
 1.7339995264365e-04
-8.9742838434290e-03
-9.1197281847855e-04
-4.4884566553094e-03
 8.0507320987522e-05
-2.7609885948701e-17
 7.9824384949245e-17
-2.3699727754291e-16
-1.9956920713454e-02
 2.5326805713064e-03
-9.9743072292124e-03
 2.3624361003272e-03
-9.0126038336962e-03
 1.2395761539654e-03
-4.5163384707934e-03
 1.1625054584670e-03
 2.0507175872795e-16
-4.1243728267706e-17
 2.3148563415513e-17
-2.0119240416832e-02
 6.9355644502878e-03
-1.0070840480589e-02
 4.5766627600301e-03
-9.1016851578161e-03
 3.4119217522797e-03
-4.5722387613552e-03
 2.2548581762010e-03
-1.9786689647861e-16
 5.2888737226558e-18
 2.0079763047610e-16
-2.0412273536124e-02
 1.1391220502290e-02
-1.0234286706368e-02
 6.8169412117527e-03
-9.2565944308944e-03
 5.6026510210447e-03
-4.6640308906092e-03
 3.3575864586055e-03
 9.3874967478300e-17
-2.4394548880924e-17
 8.0888258330997e-17
-2.0869808056318e-02
 1.5908771263895e-02
-1.0484016672731e-02
 9.0901225624975e-03
-9.4982946208688e-03
 7.8121166102676e-03
-4.8030324005026e-03
 4.4722682609972e-03
 4.2836150208545e-17
 4.0115480381964e-18
 7.4572780676269e-17
-2.1545763938079e-02
 2.0508925747215e-02
-1.0852571084532e-02
 1.1409029655965e-02
-9.8586039813426e-03
 1.0043265066321e-02
-5.0065655961049e-03
 5.6014857136546e-03
-9.4888018883216e-17
-2.9300563711421e-17
-4.7894630969547e-17
-2.2529520246096e-02
 2.5220267757334e-02
-1.1394283433411e-02
 1.3788833701085e-02
-1.0386770914977e-02
 1.2298656376467e-02
-5.3011552842577e-03
 6.7463251272528e-03
 1.1372603163015e-16
 5.8587574895685e-17
 1.0642799575661e-16
-2.3965956949290e-02
 3.0066068492531e-02
-1.2195387126566e-02
 1.6235329036135e-02
-1.1157533025823e-02
 1.4572423897816e-02
-5.7262565136256e-03
 7.9004721564360e-03
 1.4208469470423e-16
 9.5816366993407e-18
 8.2304497418806e-17
-2.6077833247534e-02
 3.5030622881493e-02
-1.3390504876966e-02
 1.8723508726282e-02
-1.2280686108284e-02
 1.6832727192062e-02
-6.3396315569833e-03
 9.0344274377401e-03
-6.0200325627258e-17
 7.2966806208274e-17
 1.4057358792632e-16
-2.9211232761242e-02
 3.9984155439264e-02
-1.5200881346441e-02
 2.1174252837739e-02
-1.3910519322963e-02
 1.8987633767447e-02
-7.2162268871949e-03
 1.0076096287250e-02
-2.5383883363317e-17
-3.6022617180831e-17
-1.6019087098473e-17
-3.3922325502324e-02
 4.4704431118809e-02
-1.7908233477492e-02
 2.3485270652941e-02
-1.6255823029383e-02
 2.0881232106572e-02
-8.4742356648278e-03
 1.0935837310846e-02
-9.9692389760042e-17
-3.4640259410912e-17
-2.9117604594814e-17
-4.0749147572416e-02
 4.8788873045119e-02
-2.1398023818415e-02
 2.5149994407059e-02
-1.9482685824499e-02
 2.2322692150225e-02
-1.0166570993164e-02
 1.1462892241966e-02
 1.1430201403428e-16
 6.8413157083835e-17
 1.5184251425659e-16
-4.9155102694130e-02
 4.8862133463668e-02
-2.4482090865495e-02
 2.2810962804627e-02
-2.3303843243099e-02
 2.2033505115949e-02
-1.1883675119577e-02
 1.0470277975649e-02
-1.2896584841715e-16
 6.4781079806009e-17
 7.9688859677685e-17
-5.7408453439930e-02
 3.4145534065155e-02
-2.6256341665891e-02
 1.0218105086466e-02
-2.7060034396598e-02
 1.7442213098249e-02
-1.2781798398315e-02
 6.7236185593238e-03
-1.0083080204115e-16
 4.7596475372114e-17
 2.0166160408230e-17
-9.7939990657315e-02
 7.7946451066588e-03
-4.7891673553664e-02
 5.5208463475189e-03
-8.1965684239904e-17
-5.5944832100252e-17
-7.3725747729014e-18
-5.5550604346286e-03
-2.5284759415016e-03
-6.3933218550796e-03
-5.3283590435171e-03
-3.7549405816222e-03
-1.6455368488995e-03
-4.0582821641584e-03
-3.4102959678979e-03
 6.0715321659188e-18
 1.7780915628762e-17
 2.1684043449710e-19
-1.6986376046599e-02
-2.8275367505786e-02
-1.0588947533240e-02
-2.2416154830708e-02
-8.2108809668284e-03
-1.5688448206303e-02
-5.2140148352642e-03
-1.1970472333715e-02
 8.5651971626355e-18
 2.6888213877641e-17
 1.1384122811098e-17
-2.1101629891522e-02
-5.1878305135956e-02
-1.0833220664604e-02
-2.7419999384932e-02
-9.3333517981336e-03
-2.6662136266574e-02
-3.7243716594801e-03
-1.3294581055114e-02
-1.4365678785433e-17
 2.7891100887190e-17
 2.7674260452693e-17
-1.7640171781036e-02
-5.0508203263689e-02
-8.2955860636993e-03
-2.3897976171298e-02
-7.2693426307922e-03
-2.5198044439773e-02
-3.3045014424005e-03
-1.1597448398113e-02
 4.3259666682172e-17
-3.2309224740068e-17
 1.7835125737386e-17
-1.6135684183933e-02
-4.5258996594999e-02
-7.8731037014315e-03
-2.1535552342726e-02
-7.0349498696487e-03
-2.2491131477280e-02
-3.6479761648991e-03
-1.0844907890615e-02
-2.3283241654126e-17
 4.2446515052807e-17
 9.2428235204389e-18
-1.6127050520709e-02
-4.1648855318513e-02
-8.0699099060553e-03
-1.9864148730790e-02
-7.0071314796678e-03
-2.0777053043044e-02
-3.4719015220190e-03
-9.9784491301023e-03
-2.0735366548785e-18
 2.3201926491190e-17
-3.3749180750400e-17
-1.6153313023544e-02
-3.7889460621464e-02
-8.1001914722840e-03
-1.8059220604073e-02
-6.9470924681241e-03
-1.9011394760902e-02
-3.4559334376212e-03
-9.0099219488593e-03
-3.8031779331718e-17
 7.4132323543696e-18
 3.9336210070490e-18
-1.6143867445137e-02
-3.4117575094704e-02
-8.0730589147713e-03
-1.6099565485319e-02
-6.9727843804230e-03
-1.7103689059439e-02
-3.4955843007509e-03
-8.0705743345248e-03
 1.2786809371751e-17
-3.0594830054825e-17
-1.8150221993765e-17
-1.6150278150505e-02
-3.0278728453801e-02
-8.0791606716399e-03
-1.4161496709960e-02
-7.0014024417446e-03
-1.5158794461668e-02
-3.5049632922579e-03
-7.0922404974141e-03
 7.8079497077901e-18
 1.5932689737853e-17
 4.3862754140617e-17
-1.6161294123393e-02
-2.6365057073832e-02
-8.0803977331296e-03
-1.2200252729031e-02
-7.0143904811175e-03
-1.3201130708841e-02
-3.5079997356036e-03
-6.1078219057435e-03
-9.0983726391965e-17
-2.2543781891173e-17
-7.8913056907338e-17
-1.6143469876667e-02
-2.2418436108040e-02
-8.0613319722840e-03
-1.0213031146236e-02
-7.0171864902022e-03
-1.1213835245250e-02
-3.5089249863063e-03
-5.1083415347506e-03
 8.5561339100999e-17
-3.5653310815828e-17
-6.0689910670771e-17
-1.6099832786210e-02
-1.8417035056714e-02
-8.0340691807574e-03
-8.1990882160312e-03
-7.0094962736107e-03
-9.2041308868698e-03
-3.5028324311668e-03
-4.0972060769775e-03
-8.5058201530330e-17
-5.0356108714268e-19
 1.3912092642178e-16
-1.6042895134333e-02
-1.4358085598559e-02
-8.0032389209901e-03
-6.1557707642805e-03
-6.9947297780573e-03
-7.1702053743366e-03
-3.4950983274484e-03
-3.0736147960226e-03
-7.3556341139563e-18
 8.0790002509115e-17
-2.6942423986265e-17
-1.5988818139448e-02
-1.0240507622228e-02
-7.9786788990575e-03
-4.0829392127080e-03
-6.9810218968769e-03
-5.1123674373468e-03
-3.4895290837085e-03
-2.0384582650195e-03
-1.6471995615370e-16
 1.4199999140950e-16
-3.0089363143551e-17
-1.5959073237568e-02
-6.0666513452645e-03
-7.9711144096262e-03
-1.9832416016925e-03
-6.9773451189121e-03
-3.0328523727707e-03
-3.4911391384753e-03
-9.9335104519582e-04
-3.1689620139151e-18
 3.8597597340484e-17
 4.1053569371048e-18
-1.5976371714075e-02
-1.8438435999002e-03
-7.9915871855007e-03
 1.3872743465981e-04
-6.9940628690119e-03
-9.3546953624291e-04
-3.5054332044240e-03
 5.9584443249605e-05
-7.7359519072735e-18
-1.7992673865576e-17
 3.6267409702587e-17
-1.6064678139301e-02
 2.4178717142718e-03
-8.0518651340000e-03
 2.2772783606229e-03
-7.0427906767918e-03
 1.1746707335067e-03
-3.5385301321753e-03
 1.1177495386221e-03
-1.0672615135404e-17
-1.4636729328554e-17
-1.7065088085038e-16
-1.6250378966774e-02
 6.7081934641067e-03
-8.1655265519594e-03
 4.4271933620621e-03
-7.1371803137481e-03
 3.2914744237633e-03
-3.5977021982205e-03
 2.1782858381982e-03
-1.0937058821537e-16
-2.8084224399164e-17
 1.1321272966412e-16
-1.6565801888717e-02
 1.1018714585234e-02
-8.3502953258954e-03
 6.5844479170209e-03
-7.2945919863514e-03
 5.4082829083324e-03
-3.6923392447932e-03
 3.2382006426985e-03
 6.1972318552914e-17
-4.8382521947166e-18
 1.1995680599015e-17
-1.7054983121838e-02
 1.5343491666812e-02
-8.6315882033734e-03
 8.7460227973111e-03
-7.5387332176433e-03
 7.5177624970468e-03
-3.8353716590365e-03
 4.2939626565186e-03
-1.1607739509173e-17
-9.7537537942227e-17
 2.0044187663826e-17
-1.7781988638532e-02
 1.9677026544500e-02
-9.0474226935218e-03
 1.0908129444488e-02
-7.9033324242914e-03
 9.6103779620691e-03
-4.0452216260434e-03
 5.3400266038608e-03
-3.7628591648825e-17
 1.5680273919572e-17
-2.0693692527780e-16
-1.8841825302864e-02
 2.4007231850511e-02
-9.6543857635414e-03
 1.3061442492585e-02
-8.4366244620924e-03
 1.1670519339251e-02
-4.3481095747495e-03
 6.3657024127792e-03
 1.2402595226876e-16
-4.0386530925085e-18
 7.1553955252254e-17
-2.0373046802597e-02
 2.8298522638472e-02
-1.0533575660348e-02
 1.5180445221120e-02
-9.2058904070882e-03
 1.3668385110432e-02
-4.7802053238399e-03
 7.3491672129364e-03
 3.1380876629877e-17
 4.3855977877039e-17
-4.0071434668706e-17
-2.2569011900067e-02
 3.2456712668200e-02
-1.1793192526268e-02
 1.7201260373724e-02
-1.0299227699306e-02
 1.5544424043258e-02
-5.3882281144126e-03
 8.2463350139648e-03
-2.8390511512891e-16
 3.1577388273640e-18
 4.0766001685455e-17
-2.5684203068416e-02
 3.6265406926269e-02
-1.3581072306000e-02
 1.8989642227780e-02
-1.1824165928317e-02
 1.7181767853826e-02
-6.2241274730752e-03
 8.9754002958387e-03
 2.6872628471411e-16
-1.2902005852577e-17
-9.2638299375308e-17
-3.0067646460061e-02
 3.9356484945294e-02
-1.6082661479222e-02
 2.0360683460922e-02
-1.3901650403341e-02
 1.8387275046695e-02
-7.3527203948487e-03
 9.4251998097974e-03
 5.6148120007593e-17
-8.7169854667835e-17
 4.4960508840258e-18
-3.6050284073809e-02
 4.1334812759061e-02
-1.9213317367434e-02
 2.1036212575439e-02
-1.6616761611488e-02
 1.8956974457602e-02
-8.7760897831757e-03
 9.4788460538666e-03
-3.9329433806912e-17
 1.7076184216647e-17
 2.7809785724253e-17
-4.3221823302559e-02
 4.0274020621631e-02
-2.1951103146707e-02
 1.8812449340743e-02
-1.9681551059506e-02
 1.8146101077582e-02
-1.0182103979609e-02
 8.4953172396638e-03
 1.4040418133687e-17
-1.2983321015514e-17
 1.5964876989849e-17
-5.0246466730897e-02
 2.7902900332204e-02
-2.4531907569322e-02
 8.4157060072130e-03
-2.2633877414961e-02
 1.4768150564247e-02
-1.1535819603978e-02
 5.8776322776666e-03
 5.3559587320784e-17
 1.5829351718288e-17
 2.3201926491190e-17
-8.6413700004421e-02
 6.7707881560768e-03
-4.1126472346747e-02
 5.0876582463744e-03
-4.5102810375397e-17
-2.1684043449710e-17
-1.0408340855861e-17
-8.3665944543383e-03
-4.0557584635694e-03
-6.8371674596124e-03
-7.6769435626289e-03
-4.6016186588247e-03
-2.3585426126287e-03
-3.4537241377350e-03
-4.3339105162854e-03
 6.4184768611142e-17
 2.3635607360184e-17
 1.0408340855861e-17
-1.4827966785636e-02
-3.3502203968227e-02
-9.0923657927950e-03
-2.4695663254405e-02
-6.2193417920824e-03
-1.7735588429499e-02
-3.6755213698498e-03
-1.2524401324860e-02
-1.6425662913155e-17
 1.2576745200832e-17
-3.1441863002080e-18
-1.5696610622564e-02
-5.2781001163074e-02
-7.2911095485426e-03
-2.6751821025187e-02
-6.2481396952165e-03
-2.6804472500091e-02
-2.0673514893090e-03
-1.2869857259467e-02
-6.8792627844205e-17
-1.5504091066543e-17
-2.6752688606080e-17
-1.1823659842467e-02
-4.9144341181123e-02
-5.6396577585334e-03
-2.3321804366901e-02
-4.5291328170265e-03
-2.4515214580961e-02
-2.2042015698744e-03
-1.1491882722588e-02
-2.1575623232462e-17
 4.3368086899420e-18
-5.5185890579512e-17
-1.1454266893349e-02
-4.4878034231914e-02
-5.6559935534324e-03
-2.1546755682437e-02
-4.5574156934265e-03
-2.2392391551687e-02
-2.4165109201704e-03
-1.0858348637157e-02
 1.3220490240745e-17
 7.7994793783176e-18
 1.5368565794982e-17
-1.1621160622013e-02
-4.1586782669967e-02
-5.8326355572333e-03
-1.9913900501820e-02
-4.6441353741784e-03
-2.0816410234834e-02
-2.3231754914263e-03
-9.9797819192986e-03
-1.7296412782933e-16
 3.6266562669640e-17
-1.8306076056060e-17
-1.1688819091042e-02
-3.7936226155821e-02
-5.8763123672829e-03
-1.8071782706841e-02
-4.7053167059516e-03
-1.9049490907122e-02
-2.3650257759584e-03
-9.0332687890964e-03
 2.4003219659292e-17
-1.2773256844595e-18
 2.9137933385548e-18
-1.1765895990031e-02
-3.4182173410017e-02
-5.9024010359234e-03
-1.6127098107916e-02
-4.7869047630798e-03
-1.7141671547371e-02
-2.4136063928353e-03
-8.0900560745363e-03
 1.6589987304923e-17
 1.0977546996416e-18
-3.4958743799080e-17
-1.1848854834184e-02
-3.0320610779675e-02
-5.9420981778082e-03
-1.4183209897396e-02
-4.8491377455662e-03
-1.5194344172709e-02
-2.4383204092970e-03
-7.1056110563603e-03
 2.7571134191364e-17
 3.3104588677540e-17
-4.0445823231393e-18
-1.1911842973127e-02
-2.6389548800338e-02
-5.9674630654651e-03
-1.2205591509940e-02
-4.8945403331118e-03
-1.3221440583711e-02
-2.4559787632796e-03
-6.1139843222975e-03
 9.2250358285466e-18
-2.7082184422562e-17
 7.7808446534780e-18
-1.1945152436560e-02
-2.2415143223483e-02
-5.9756056696223e-03
-1.0205762359703e-02
-4.9239811267512e-03
-1.1221904004582e-02
-2.4680913007131e-03
-5.1088449170749e-03
-2.3086306493890e-17
 1.9319127460976e-17
 2.3393355937269e-17
-1.1953633784685e-02
-1.8392993718663e-02
-5.9747212474619e-03
-8.1838449397651e-03
-4.9400703026095e-03
-9.2022893164394e-03
-2.4734424500536e-03
-4.0941371132845e-03
 4.5811776952249e-18
-9.8343701549776e-17
 1.3930388553839e-16
-1.1946939220195e-02
-1.4326276223855e-02
-5.9689563229117e-03
-6.1401487895409e-03
-4.9472862409061e-03
-7.1642865668480e-03
-2.4760108392456e-03
-3.0704760366120e-03
 5.7461868108785e-17
 2.0200888759068e-17
-1.3635112868426e-17
-1.1938277880390e-02
-1.0217760774225e-02
-5.9661984415325e-03
-4.0765982688527e-03
-4.9520043756957e-03
-5.1099574771847e-03
-2.4788355875955e-03
-2.0393191034884e-03
 3.1082085757733e-17
-1.7904582439061e-17
-3.5533032137318e-19
-1.1944452279423e-02
-6.0728849022382e-03
-5.9751794926584e-03
-1.9967978347495e-03
-4.9615443390394e-03
-3.0427331950023e-03
-2.4859662997869e-03
-1.0027990780372e-03
 6.9511758816424e-18
-5.0601748268972e-18
-1.0802634692808e-17
-1.1984693044354e-02
-1.9009211127781e-03
-6.0058651090564e-03
 9.3616441972699e-05
-4.9846185313527e-03
-9.6768658731605e-04
-2.5021044979781e-03
 3.6191326728385e-05
-4.9526016425959e-18
-1.0620099092674e-17
-5.6502179779545e-17
-1.2081210075280e-02
 2.2855008490410e-03
-6.0699397740791e-03
 2.1874177492691e-03
-5.0316788873488e-03
 1.1082250386743e-03
-2.5329281989741e-03
 1.0738234674079e-03
-8.1007689976559e-17
-9.6104358195473e-18
-3.8839425246925e-16
-1.2260754035992e-02
 6.4711895976615e-03
-6.1819695537864e-03
 4.2761993099702e-03
-5.1158155276880e-03
 3.1759208449032e-03
-2.5856042097985e-03
 2.1052241830546e-03
-4.6807040665273e-17
-6.7999805005575e-18
 6.7511066995009e-17
-1.2557650215612e-02
 1.0638572978038e-02
-6.3613037294523e-03
 6.3502259716301e-03
-5.2541937210435e-03
 5.2239749646219e-03
-2.6695915510402e-03
 3.1242396934203e-03
 1.0464922656737e-16
-1.9925603051210e-17
 3.2667519676757e-17
-1.3018261317683e-02
 1.4766339120953e-02
-6.6346766105099e-03
 8.3973647264202e-03
-5.4700227518651e-03
 7.2378107220263e-03
-2.7976764064448e-03
 4.1226894352349e-03
 9.2717920472350e-17
-2.1013193355485e-17
 9.8149095730145e-17
-1.3706832839475e-02
 1.8825369106167e-02
-7.0394250883936e-03
 1.0400329835363e-02
-5.7948974460942e-03
 9.1975001595763e-03
-2.9871309968996e-03
 5.0886999975575e-03
-2.6706948826928e-17
 2.1501084333103e-17
 7.7762706755628e-17
-1.4712256238226e-02
 2.2770451308972e-02
-7.6267873184701e-03
 1.2331286648930e-02
-6.2711535246649e-03
 1.1073502638842e-02
-3.2608868434920e-03
 6.0037368597961e-03
-1.3134092880125e-17
-2.0510394597995e-16
 1.2302645339100e-16
-1.6154188850912e-02
 2.6524771036193e-02
-8.4641327184460e-03
 1.4141780465025e-02
-6.9534705287424e-03
 1.2819465823636e-02
-3.6478340587109e-03
 6.8380227201317e-03
-3.8511199979864e-17
-1.6183072677062e-16
 9.8186365179824e-17
-1.8184999643481e-02
 2.9952857985748e-02
-9.6323409362746e-03
 1.5745059873893e-02
-7.9075407617779e-03
 1.4360112916526e-02
-4.1831952797082e-03
 7.5415928205729e-03
 1.0936720008358e-16
-5.5511151231258e-17
 1.8196554695980e-16
-2.0981035124542e-02
 3.2811968144721e-02
-1.1227269941898e-02
 1.6989192706035e-02
-9.2060846661752e-03
 1.5572355306459e-02
-4.9011671032275e-03
 8.0350479843503e-03
-1.2803750030696e-16
-1.6832238727837e-17
 4.1189518159082e-17
-2.4744789391256e-02
 3.4716251061674e-02
-1.3361578914262e-02
 1.7670325024312e-02
-1.0916933431588e-02
 1.6267746123836e-02
-5.8484179519525e-03
 8.2078869774733e-03
-5.7008705482003e-17
 1.0977546996416e-17
-1.8180715179866e-17
-2.9636475840505e-02
 3.5247120373050e-02
-1.5957492941361e-02
 1.7606462369088e-02
-1.3070679298437e-02
 1.6249771682338e-02
-6.9863453265953e-03
 7.9547588388351e-03
 2.5397435890473e-17
 3.7161029461941e-17
 8.6736173798840e-19
-3.5227375567736e-02
 3.3251331482305e-02
-1.8102168604159e-02
 1.5335507561105e-02
-1.5380460341532e-02
 1.5049736504977e-02
-8.0549732870523e-03
 6.9455493735688e-03
-6.5621336489685e-17
-2.3554292197248e-17
-1.9651164376300e-17
-4.0474987957989e-02
 2.2259474544064e-02
-2.1092845295407e-02
 6.5030613814940e-03
-1.7470211252629e-02
 1.2564990173757e-02
-9.6117912133735e-03
 5.2268117747118e-03
 3.0899761915837e-17
 1.2305694657710e-17
 2.1955093992831e-17
-7.2252982882308e-02
 5.6550637774144e-03
-3.3893407325905e-02
 4.6005923379511e-03
-9.9746599868666e-18
 5.3559587320784e-17
 2.3201926491190e-17
-7.7305937150074e-03
-5.2053102688472e-03
-4.0870507495017e-03
-9.2225494993343e-03
-3.0616051465415e-03
-2.8344639110793e-03
-1.1519182865154e-03
-4.8234819536486e-03
-1.4094628242312e-17
 9.3241386833753e-18
 4.9873299934333e-18
-9.2871708544067e-03
-3.6331683883181e-02
-6.0309412149599e-03
-2.5878572275133e-02
-2.8761849417549e-03
-1.8939208163764e-02
-1.7321813110769e-03
-1.2884371236183e-02
 7.2370495013407e-17
 3.3285006695305e-17
 2.4828229749918e-17
-8.6879525350305e-03
-5.3017152576830e-02
-3.5440504298854e-03
-2.6192914697162e-02
-2.5730670565736e-03
-2.6945120243732e-02
-3.6096221005266e-04
-1.2739214085961e-02
-5.8546917314217e-18
 6.0715321659188e-18
 1.5178830414797e-17
-6.0264914836452e-03
-4.8401646139435e-02
-2.9596648254291e-03
-2.3169633194357e-02
-1.6005794392697e-03
-2.4344940525990e-02
-9.9380681713512e-04
-1.1559676487842e-02
 2.3418766925687e-17
 5.5077470362264e-17
 5.9902170029824e-18
-6.5501353212341e-03
-4.4931815075429e-02
-3.3221646918848e-03
-2.1670164570651e-02
-2.0146532857268e-03
-2.2532334976768e-02
-1.1653198488801e-03
-1.0934396636174e-02
 4.2602369115102e-17
 3.1062392241710e-17
 6.9117888495951e-19
-6.9508740700357e-03
-4.1756268138848e-02
-3.5431088021074e-03
-2.0008145599093e-02
-2.2645906637422e-03
-2.0970775595426e-02
-1.1763733546673e-03
-1.0039796874651e-02
-2.3608502305872e-17
-2.7457420018195e-17
-5.6798641311084e-17
-7.1943720357339e-03
-3.8109187709146e-02
-3.6543211547428e-03
-1.8141920488404e-02
-2.4577638273513e-03
-1.9163149731762e-02
-1.2720753765620e-03
-9.0918362524803e-03
 8.9057044074317e-18
-1.5788694136820e-18
-2.3028284737003e-17
-7.4010231359551e-03
-3.4327347721600e-02
-3.7419864191275e-03
-1.6193237227242e-02
-2.6101728755634e-03
-1.7231158539287e-02
-1.3390025355875e-03
-8.1307729945763e-03
 2.5934454779032e-17
-5.6242987697685e-18
 1.1272314462060e-17
-7.5678069098686e-03
-3.0429926869665e-02
-3.8166880910655e-03
-1.4230540792653e-02
-2.7149020046409e-03
-1.5263480813250e-02
-1.3803893693023e-03
-7.1350347785710e-03
-3.7853902412795e-17
-2.3410296596214e-17
-1.4873898553786e-18
-7.6880777937873e-03
-2.6467046050520e-02
-3.8677288065436e-03
-1.2235433515173e-02
-2.7907428150229e-03
-1.3269088191541e-02
-1.4109092247310e-03
-6.1332030282983e-03
 2.6032287084440e-17
-2.3667794612180e-17
 2.9694222273657e-17
-7.7700088644264e-03
-2.2460347392226e-02
-3.8995146720833e-03
-1.0221730042417e-02
-2.8434663202006e-03
-1.1253231322181e-02
-1.4328702314970e-03
-5.1207198064702e-03
 7.9001915957461e-17
-2.6444368613279e-17
 3.3157104720270e-17
-7.8218001177248e-03
-1.8414683692200e-02
-3.9191488921784e-03
-8.1903512436270e-03
-2.8791261088372e-03
-9.2212882596083e-03
-1.4471725359186e-03
-4.1010129545498e-03
-4.9905910702803e-17
 3.8861871620027e-17
 1.3719985569741e-16
-7.8530460987025e-03
-1.4335516645915e-02
-3.9309755996371e-03
-6.1433977184606e-03
-2.9027528989900e-03
-7.1760685106987e-03
-1.4568558588906e-03
-3.0752189658756e-03
-2.6797581352284e-17
-1.4890892152290e-17
 6.3220845117167e-17
-7.8747537039163e-03
-1.0228097816594e-02
-3.9412366331035e-03
-4.0840426629529e-03
-2.9194404958162e-03
-5.1204212182441e-03
-1.4642987498235e-03
-2.0451146924643e-03
-6.5453200449655e-17
 4.1534260568615e-18
 1.7711035410614e-17
-7.8998573299884e-03
-6.1004075110276e-03
-3.9568431889094e-03
-2.0171660879669e-03
-2.9347664211628e-03
-3.0587422926907e-03
-1.4724945905300e-03
-1.0133760267195e-03
 3.2452373308154e-17
 1.1074955785350e-18
-1.7153264214847e-17
-7.9437051518738e-03
-1.9644696184855e-03
-3.9860951453008e-03
 5.0034315677294e-05
-2.9553599277960e-03
-9.9753253956436e-04
-1.4850810723317e-03
 1.6206790462547e-05
-7.8689360799925e-18
-8.9311153958493e-18
-5.5845305728950e-17
-8.0251429541676e-03
 2.1631812201832e-03
-4.0393760403568e-03
 2.1080099151050e-03
-2.9896230756776e-03
 1.0540434805897e-03
-1.5067440979237e-03
 1.0384136528217e-03
-3.1387737596750e-16
-1.4916250201148e-17
-8.0682175214930e-16
-8.1683021612236e-03
 6.2611839937716e-03
-4.1302711931017e-03
 4.1446210624372e-03
-3.0486747018585e-03
 3.0836311001679e-03
-1.5437313138307e-03
 2.0463352178126e-03
 9.1089923147727e-17
-4.6705396711602e-18
-1.6278702696807e-17
-8.4051991570391e-03
 1.0302333505436e-02
-4.2770835936352e-03
 6.1444193700026e-03
-3.1475856948191e-03
 5.0751093306438e-03
-1.6045008582069e-03
 3.0309533750596e-03
 2.0731300790639e-16
-1.6127507315722e-18
-4.7953923275855e-17
-8.7790692197984e-03
 1.4251280464123e-02
-4.5046573203322e-03
 8.0871504630409e-03
-3.3068337218083e-03
 7.0074207240545e-03
-1.7004632086071e-03
 3.9802497230852e-03
 1.3477988256710e-16
-7.3617327511766e-17
 4.3903835238558e-17
-9.3481322502669e-03
 1.8059983971440e-02
-4.8463056501209e-03
 9.9448738607180e-03
-3.5537760305715e-03
 8.8523049592784e-03
-1.8466609337509e-03
 4.8776306710749e-03
 2.0953901049177e-17
-4.0887974429860e-17
 5.6114662206177e-17
-1.0189183300767e-02
 2.1659587029461e-02
-5.3452050288030e-03
 1.1677047593423e-02
-3.9237092136659e-03
 1.0570433604835e-02
-2.0623486855556e-03
 5.6993069419775e-03
-8.7528996637470e-17
-8.5313158447453e-18
-6.7660991826674e-18
-1.1399307649967e-02
 2.4947262193805e-02
-6.0545808023118e-03
 1.3222781624165e-02
-4.4599509475347e-03
 1.2105626081487e-02
-2.3702508147068e-03
 6.4109692441718e-03
 1.4179839756805e-16
 7.5216525716182e-19
 9.2576465970159e-17
-1.3093439027657e-02
 2.7765815060931e-02
-7.0319531847911e-03
 1.4487969588572e-02
-5.2104392956949e-03
 1.3375917521442e-02
-2.7967621946488e-03
 6.9611618807528e-03
-6.4257613444606e-17
-3.9166803481039e-17
 1.6119375799428e-16
-1.5390069535634e-02
 2.9869472035685e-02
-8.3392670194833e-03
 1.5324352401876e-02
-6.2234104718186e-03
 1.4261297699482e-02
-3.3608707284145e-03
 7.2776641998473e-03
 4.2880195921802e-17
-7.9824384949245e-18
-6.5933044614275e-18
-1.8404329674119e-02
 3.0901297061611e-02
-1.0038921234308e-02
 1.5535252204984e-02
-7.5326998776291e-03
 1.4590142448665e-02
-4.0982661030142e-03
 7.2636432539071e-03
 9.6236495335245e-17
-6.6922379096668e-17
-1.8505975831612e-17
-2.2189374438746e-02
 3.0480158523950e-02
-1.2069298444887e-02
 1.4988241876495e-02
-9.1421685028763e-03
 1.4188984238738e-02
-4.9604623289952e-03
 6.8197273267998e-03
-5.7001929218425e-17
 5.1635128464622e-18
 2.5410988417629e-17
-2.6290908269011e-02
 2.7843078652630e-02
-1.3589443404991e-02
 1.2631159294358e-02
-1.0780485850034e-02
 1.2733558486122e-02
-5.7026038137877e-03
 5.7971311580331e-03
 7.6937696665003e-17
-4.8789097761848e-18
 3.7947076036993e-17
-2.9836376322741e-02
 1.7685437430472e-02
-1.6852150671245e-02
 4.8592827113225e-03
-1.2171969726978e-02
 1.0944959522394e-02
-7.4790161520326e-03
 4.7936800511650e-03
-2.8189256484623e-18
 3.2146594414195e-17
-2.8622937353617e-17
-5.7645221055935e-02
 4.3824034000188e-03
-2.6782559339978e-02
 4.1984773152421e-03
 6.0932162093685e-17
-1.8323016715005e-17
-4.2067044292438e-17
-2.5579166936405e-03
-5.9528943251967e-03
 9.4674594015576e-04
-1.0111545371984e-02
 5.5534570858384e-04
-3.1400525911662e-03
 1.8420858547295e-03
-5.2077747365971e-03
-8.9988780316297e-18
-2.0599841277225e-17
-9.4325589006239e-18
-1.4336277751505e-03
-3.8676706867387e-02
-1.9493830986512e-03
-2.7035848989286e-02
 1.2846636950030e-03
-2.0125208661264e-02
 5.9883396856719e-04
-1.3629782352265e-02
-6.4835289914633e-17
 2.3201926491190e-17
 1.4365678785433e-17
-1.1218887755717e-03
-5.3923479242830e-02
 2.1170125278136e-04
-2.6272208109248e-02
 1.1570077419947e-03
-2.7801817083752e-02
 1.0421172348316e-03
-1.3047698781790e-02
-3.7215239570565e-17
-2.3744027577433e-17
-1.9461428996115e-17
-2.5862245935571e-04
-4.8939381149527e-02
-2.6792056589020e-04
-2.3372458980674e-02
 1.2591773076167e-03
-2.4787367445452e-02
 4.0366122819790e-04
-1.1798984875760e-02
-1.3281476612947e-17
-4.2283884726935e-17
-3.4965520062657e-17
-1.5907654067782e-03
-4.5438902415341e-02
-9.4102945975028e-04
-2.1960389061690e-02
 5.1958485764203e-04
-2.2931277391797e-02
 5.3407395640193e-05
-1.1117090246501e-02
 1.1546753136971e-17
-7.1421818112483e-18
-8.9446679230054e-18
-2.2958159500419e-03
-4.2185708985493e-02
-1.2619023297784e-03
-2.0199037448379e-02
 3.8190415921235e-05
-2.1257897236353e-02
-7.7696518857806e-05
-1.0166591635525e-02
-8.2467127744679e-18
-2.6386770372866e-17
 1.2309082789500e-17
-2.7510257072905e-03
-3.8456622615691e-02
-1.4617568158997e-03
-1.8273075917762e-02
-2.7163696978505e-04
-1.9359479477677e-02
-1.9468517618293e-04
-9.1810312326430e-03
-8.1925026658436e-17
 3.9874923024943e-17
-9.5392850519779e-18
-3.0869434483023e-03
-3.4576909713550e-02
-1.6057451368372e-03
-1.6295327618195e-02
-4.7214439376830e-04
-1.7372298849868e-02
-2.7646746769960e-04
-8.1901448149182e-03
 5.4447277849506e-18
 7.8164200372627e-18
-4.4295587976664e-17
-3.3302039614469e-03
-3.0607977900026e-02
-1.7113536002284e-03
-1.4303770411289e-02
-6.0955304752497e-04
-1.5364607864589e-02
-3.3330093620521e-04
-7.1780432260624e-03
 8.7845786959744e-17
 2.9544509200230e-17
-2.1659479494240e-17
-3.5021429259885e-03
-2.6593823378562e-02
-1.7852232546982e-03
-1.2287204980510e-02
-7.0922044739064e-04
-1.3340539095848e-02
-3.7472758337742e-04
-6.1632444143669e-03
-1.1466285006982e-17
-4.0445823231393e-18
 6.4942016065987e-18
-3.6249290924815e-03
-2.2547004896893e-02
-1.8363846049016e-03
-1.0256728968557e-02
-7.8025194341080e-04
-1.1303727287274e-02
-4.0492213051380e-04
-5.1416133646569e-03
-1.5748036555352e-17
 9.3893602203139e-18
 4.8228997225476e-18
-3.7111823876188e-03
-1.8472152393770e-02
-1.8719172411430e-03
-8.2132014496210e-03
-8.3096665281346e-04
-9.2563799575345e-03
-4.2622378018109e-04
-4.1152373233047e-03
 2.1086038188949e-17
-1.4961142947353e-17
-2.4519486240644e-18
-3.7706062770155e-03
-1.4373656142595e-02
-1.8959995533194e-03
-6.1589985380124e-03
-8.6656297082754e-04
-7.2001546372817e-03
-4.4097335390347e-04
-3.0849836634275e-03
-8.1463393702182e-18
-1.6909318726038e-17
 6.8588492903917e-18
-3.8116214089001e-03
-1.0257314802047e-02
-1.9130753751462e-03
-4.0978027550409e-03
-8.9066166731300e-04
-5.1376235222982e-03
-4.5065899570318e-04
-2.0526085757524e-03
-1.7821573210230e-18
-8.2912878833171e-18
-2.2480254420129e-18
-3.8429201168100e-03
-6.1326491567257e-03
-1.9278544186392e-03
-2.0355635231226e-03
-9.0655974042875e-04
-3.0736470186525e-03
-4.5695306988591e-04
-1.0211697739635e-03
 7.4030679590026e-19
-6.4949427604276e-18
 7.3501283997992e-19
-3.8749269359215e-03
-2.0143242181376e-03
-1.9462482837369e-03
 1.8875007413044e-05
-9.1814167456050e-04
-1.0159854920779e-03
-4.6205760210682e-04
 4.6919030864956e-06
 1.6601845766184e-18
-1.9164120431628e-18
 6.3980633670854e-18
-3.9213802297269e-03
 2.0769391144881e-03
-1.9762249766018e-03
 2.0534172481348e-03
-9.3082696776037e-04
 1.0240237096148e-03
-4.6916967912125e-04
 1.0184041060199e-03
-4.6188706613777e-18
-3.8895752937918e-18
-1.2726670032496e-18
-4.0012733801973e-03
 6.1133934833038e-03
-2.0288898170548e-03
 4.0521325662439e-03
-9.5259342765530e-04
 3.0308418973775e-03
-4.8298702810712e-04
 2.0111428524956e-03
 2.2209203877008e-18
-7.3471637844838e-18
-3.7489678245475e-18
-4.1411571666714e-03
 1.0058663512055e-02
-2.1197319093105e-03
 5.9942998483393e-03
-9.9509904737260e-04
 4.9839823111775e-03
-5.1027886320298e-04
 2.9713328053447e-03
 4.3740781396212e-18
 4.1674021004912e-18
 4.1860368253307e-18
-4.3777012957094e-03
 1.3865152705534e-02
-2.2699005149214e-03
 7.8528396303454e-03
-1.0748113810450e-03
 6.8567407186997e-03
-5.6044727654125e-04
 3.8837799807538e-03
 1.4443605816580e-17
 1.2387009820647e-17
 6.0850846930749e-18
-4.7601266867616e-03
 1.7469725435007e-02
-2.5073100045709e-03
 9.5916824575397e-03
-1.2139668416467e-03
 8.6141244522437e-03
-6.4588232319807e-04
 4.7283535083693e-03
 1.0681085464877e-17
-1.6703489719855e-17
 5.7039198668105e-18
-5.3518824993262e-03
 2.0786857377189e-02
-2.8668312889319e-03
 1.1161669626915e-02
-1.4409005975153e-03
 1.0209645890395e-02
-7.8229311252187e-04
 5.4778909835988e-03
-7.2777070828090e-18
-1.2048196641745e-17
 1.0266039320722e-18
-6.2299905312528e-03
 2.3698385065302e-02
-3.3897796743201e-03
 1.2494674346783e-02
-1.7895128959253e-03
 1.1581002639947e-02
-9.8705355476625e-04
 6.0960595081809e-03
-2.0193265462543e-18
-9.4867690092482e-19
-3.4894369295088e-17
-7.4808530777233e-03
 2.6040159431574e-02
-4.1163336275005e-03
 1.3495153807810e-02
-2.2954685249488e-03
 1.2643748701450e-02
-1.2812857254545e-03
 6.5321891033392e-03
 6.4289800696601e-17
 5.1770653736183e-17
 1.1285866989216e-17
-9.1851500811089e-03
 2.7577227689484e-02
-5.0900873182726e-03
 1.4025085514277e-02
-2.9936695850097e-03
 1.3284450667479e-02
-1.6738367903883e-03
 6.7215804349274e-03
-7.6246517780043e-17
-8.5638419099199e-17
-4.7338977356148e-17
-1.1412310586451e-02
 2.7995103832893e-02
-6.3440222289586e-03
 1.3910839283085e-02
-3.9034849957602e-03
 1.3350439184915e-02
-2.2015090018215e-03
 6.5812413528903e-03
 9.2089422025488e-18
-7.6856381502066e-17
-6.5743309234090e-17
-1.4167087930694e-02
 2.6958760903632e-02
-7.8362215692795e-03
 1.3057351856389e-02
-5.0188936925792e-03
 1.2696935503792e-02
-2.8082301862895e-03
 6.0172081539491e-03
 3.1306337730519e-18
-4.1877308912253e-18
 5.8906059283853e-17
-1.6993863257689e-02
 2.3925599650632e-02
-8.7822300199481e-03
 1.0630125717626e-02
-6.0967634349822e-03
 1.1075285834973e-02
-3.2724671552842e-03
 4.9821508705179e-03
-1.2227090000205e-16
-2.9802007216195e-17
 8.0908587121731e-18
-1.9173759276022e-02
 1.4149137334662e-02
-1.2237808830001e-02
 3.4454943259448e-03
-6.9762359532888e-03
 9.8534089167686e-03
-5.2181267572422e-03
 4.5934445946330e-03
 1.3552527156069e-18
 3.0520291155467e-17
-2.1846673775583e-17
-4.3606013611587e-02
 3.4112703565867e-03
-2.0147669133621e-02
 3.9030247755392e-03
-4.0549161250958e-17
 1.3118846287075e-16
 7.3725747729014e-18
 5.2254750056315e-03
-6.4778995389188e-03
 6.3206964572959e-03
-1.0783029721558e-02
 4.6212666342811e-03
-3.3154242590863e-03
 4.2955226982686e-03
-5.6341234055655e-03
-1.4528309111306e-17
 3.7133924407629e-18
-2.1141942363467e-18
 6.8336799897981e-03
-4.1460098186607e-02
 2.2069712611847e-03
-2.8729616312006e-02
 5.0317944284544e-03
-2.1516036216538e-02
 2.4492563792009e-03
-1.4930432656971e-02
-6.6000807250055e-17
 1.1167282376601e-17
-2.3581397251560e-18
 6.0138748739753e-03
-5.7158170170505e-02
 3.5685945802646e-03
-2.7192193162392e-02
 4.3814545981746e-03
-2.9713796644172e-02
 2.6122480099886e-03
-1.3842255329635e-02
 9.1587978520713e-17
 1.3715157481942e-17
-6.7762635780344e-18
 5.1365166884665e-03
-5.0292833012531e-02
 2.3340615064988e-03
-2.3996689298713e-02
 3.8794836550267e-03
-2.5773535213414e-02
 1.4987526887538e-03
-1.2232112806402e-02
-3.0682921481340e-17
-6.4076348393893e-17
 2.1684043449710e-17
 3.1026496684525e-03
-4.6545156404228e-02
 1.3542601578696e-03
-2.2365367928785e-02
 2.7153545072167e-03
-2.3542061670868e-02
 1.1785011041781e-03
-1.1367732167557e-02
 4.0657581468206e-20
-3.2526065174565e-18
-3.0134044131519e-17
 2.1566087018101e-03
-4.2943386077837e-02
 9.2987004555667e-04
-2.0464197742001e-02
 2.1893513244891e-03
-2.1664929710154e-02
 1.0138919555232e-03
-1.0329803416184e-02
 3.2932640989247e-18
-8.2419693899632e-17
-8.4703294725430e-20
 1.5487168238622e-03
-3.8932147205543e-02
 6.7055701844154e-04
-1.8463059403246e-02
 1.8405232594887e-03
-1.9616287123069e-02
 8.5563034551228e-04
-9.2945881308282e-03
 7.3495354767361e-17
 7.8401369597858e-18
-2.2957981002381e-17
 1.1268835560969e-03
-3.4897765584233e-02
 4.9253698851714e-04
-1.6431585116720e-02
 1.6026062560286e-03
-1.7542989885945e-02
 7.5956976179725e-04
-8.2653118647755e-03
-1.5348237004248e-18
-1.5792082268609e-17
-8.7278274885083e-18
 8.3682362213722e-04
-3.0837274860325e-02
 3.6645708913241e-04
-1.4398980249041e-02
 1.4485543841261e-03
-1.5483960318710e-02
 6.9699795136557e-04
-7.2306869237479e-03
 3.3466271746017e-17
-2.6823839373649e-17
-9.9221439441369e-18
 6.3227703932966e-04
-2.6759418417036e-02
 2.7615763590205e-04
-1.2356122017025e-02
 1.3407887080348e-03
-1.3427510509809e-02
 6.5046439236482e-04
-6.2006566431876e-03
 2.5101821391881e-17
-1.4568966692774e-19
-2.3874470651310e-17
 4.8160585345158e-04
-2.2666265377893e-02
 2.1045089017591e-04
-1.0306543501429e-02
 1.2609518189492e-03
-1.1368343478400e-02
 6.1449384496370e-04
-5.1689800226313e-03
-3.2603992205712e-17
-2.3921057463409e-17
-5.7570711842507e-18
 3.6989095630702e-04
-1.8557068491376e-02
 1.6254631470502e-04
-8.2483651186749e-03
 1.2002606846977e-03
-9.3038653779356e-03
 5.8743697010755e-04
-4.1348617076835e-03
 3.7870843071740e-18
-6.6525967677353e-18
 6.6069628677020e-18
 2.8929377219811e-04
-1.4432232441635e-02
 1.2932947875655e-04
-6.1826647265661e-03
 1.1555794302467e-03
-7.2333061536831e-03
 5.6837911600382e-04
-3.0980432418630e-03
 1.8591102642811e-17
 4.2563405599529e-18
-6.3560293570779e-18
 2.3553523976716e-04
-1.0295968074374e-02
 1.0875738419358e-04
-4.1129069253429e-03
 1.1261288582318e-03
-5.1581620609689e-03
 5.5721913147977e-04
-2.0599102711856e-03
 7.2222264247638e-18
-1.3008732003931e-17
 1.4088275495207e-18
 2.0546971205704e-04
-6.1581025314012e-03
 9.9042955636008e-05
-2.0457121338495e-03
 1.1118732744535e-03
-3.0832172898130e-03
 5.5396706397914e-04
-1.0237154138508e-03
 1.1798321922305e-17
-1.1719971374684e-17
 1.9901039095740e-18
 1.9505922357155e-04
-2.0353653550416e-03
 9.7541254362454e-05
 8.5863114236417e-06
 1.1125369874208e-03
-1.0171670551422e-03
 5.5829238101524e-04
 5.1717692883813e-06
-5.1681715276721e-18
 3.3356157462874e-18
 2.0540548970917e-18
 1.9746959935674e-04
 2.0475857088655e-03
 9.9728253800890e-05
 2.0354111777579e-03
 1.1265908353835e-03
 1.0267061246374e-03
 5.6898791999060e-04
 1.0189435374741e-03
 2.7240579583698e-18
-2.1889448939419e-18
 1.4043806265476e-18
 2.0099966263842e-04
 6.0568827696841e-03
 9.8131200648055e-05
 4.0151972007152e-03
 1.1501955957556e-03
 3.0298920284046e-03
 5.8341140618268e-04
 2.0070094689686e-03
 8.0976349757511e-19
 2.1548518178149e-18
-5.4040702034824e-19
 1.8685663116003e-04
 9.9476764716968e-03
 8.1229061869692e-05
 5.9223980221077e-03
 1.1760953083240e-03
 4.9678377658502e-03
 5.9695357990108e-04
 2.9554803910230e-03
-6.0986372202310e-18
 2.3750803841011e-18
 8.4686354066485e-18
 1.2696694214753e-04
 1.3661653057568e-02
 3.2454382775882e-05
 7.7240453249487e-03
 1.1925701820701e-03
 6.8087366754135e-03
 6.0252390059645e-04
 3.8463992923994e-03
-3.5101045334218e-18
-1.0018705700124e-17
 1.8024861117571e-18
-1.7815091197804e-05
 1.7123309351788e-02
-7.0589347984651e-05
 9.3775575971904e-03
 1.1826322214574e-03
 8.5117763013098e-03
 5.9035371481286e-04
 4.6567022527455e-03
 6.9863277489535e-18
-2.1379111588698e-18
-1.5754812818930e-18
-2.9858920869685e-04
 2.0234700979898e-02
-2.5567064078125e-04
 1.0827718357746e-02
 1.1238587666753e-03
 1.0024630015639e-02
 5.4743398597168e-04
 5.3566161300438e-03
-1.2319247184866e-17
-6.2477150189477e-18
-9.2157184661268e-19
-7.7695559086521e-04
 2.2867738222772e-02
-5.5595760152727e-04
 1.2002501707457e-02
 9.8891484020669e-04
 1.1280566849676e-02
 4.6006638929441e-04
 5.9084060971486e-03
 1.9548842796271e-16
 2.1440097960901e-17
 4.2216122091154e-17
-1.5210496363380e-03
 2.4856276505737e-02
-1.0002938739557e-03
 1.2808259472990e-02
 7.4900619858909e-04
 1.2193925780881e-02
 3.0871608946370e-04
 6.2623837082896e-03
 4.9270212475888e-17
 5.9814078603310e-17
 2.0160739397368e-16
-2.5920700850648e-03
 2.5977225116023e-02
-1.6260746544141e-03
 1.3117473477792e-02
 3.7489588589779e-04
 1.2657444959872e-02
 9.2281806260530e-05
 6.3600364697578e-03
-1.3788341128584e-16
-3.4220131069074e-17
 1.2727178252264e-16
-4.0436243010618e-03
 2.5956242114518e-02
-2.4485400895671e-03
 1.2779684580721e-02
-1.5023007711079e-04
 1.2533646421094e-02
-2.3366773137923e-04
 6.1307426229149e-03
 1.2407338611381e-17
-5.4643789493269e-17
 1.1542687378824e-16
-5.8698503196197e-03
 2.4508042714217e-02
-3.4491766463276e-03
 1.1731210434107e-02
-8.2218020969549e-04
 1.1704983136422e-02
-6.0753559598936e-04
 5.4827394014012e-03
-1.7360787286924e-17
-2.7728470561317e-17
-2.0938654456126e-17
-7.6389459399238e-03
 2.1212442664030e-02
-3.8804059199471e-03
 9.2366441895706e-03
-1.4320514825954e-03
 9.9575820440965e-03
-8.2657554531806e-04
 4.4220560930910e-03
 6.5404496055188e-17
-1.0172526883345e-16
 2.6712031024612e-17
-8.8130692598156e-03
 1.1485271954676e-02
-7.4900179307882e-03
 2.2927703029723e-03
-1.9982929483717e-03
 9.2130891348106e-03
-2.9751598434018e-03
 4.5940892303946e-03
 3.9790219730218e-17
 6.1582683397177e-17
 3.9844429838842e-17
-3.0472260023991e-02
 2.5247305801059e-03
-1.3992740773517e-02
 3.7235928366428e-03
-7.5026790335997e-17
 5.5240100688137e-17
 1.1167282376601e-17
 1.1559405949470e-02
-6.6326124800473e-03
 9.6768807309413e-03
-1.1036595079343e-02
 6.6630408318646e-03
-3.2467733123651e-03
 4.6829531122889e-03
-5.7360692975654e-03
-5.4643789493269e-17
-8.3483567281384e-18
-1.6263032587283e-17
 1.2732154407026e-02
-4.4404805373512e-02
 5.0661026725012e-03
-3.0939646832422e-02
 7.0992027434684e-03
-2.2313621401027e-02
 3.9000642883291e-03
-1.6385506161781e-02
-1.9407218887490e-17
-1.6154612370034e-17
 1.6479873021780e-17
 1.1548000531917e-02
-6.1801318403420e-02
 6.2152548816923e-03
-2.8946232605506e-02
 6.2954405382385e-03
-3.2347788725991e-02
 3.2656711582248e-03
-1.5122196971987e-02
-1.9190378452993e-17
 7.2065563152396e-17
 1.4203048459560e-17
 9.6644282376595e-03
-5.3163167474615e-02
 4.5107940122140e-03
-2.4748206944338e-02
 5.7705280754874e-03
-2.7188516440381e-02
 2.6992299348123e-03
-1.2648224620776e-02
 2.8663594935085e-17
 1.3552527156069e-17
-1.4650281855710e-17
 7.2666499458798e-03
-4.7803419874050e-02
 3.4138301177933e-03
-2.2914723962913e-02
 4.7044423435523e-03
-2.4221959719716e-02
 2.1620279780592e-03
-1.1672322844731e-02
-5.0639017718651e-17
 2.4082840756334e-17
-8.0840824485950e-18
 6.2472926160311e-03
-4.3746164579922e-02
 2.9941784429699e-03
-2.0800411709160e-02
 4.0880874316258e-03
-2.2072392166557e-02
 1.9531852684054e-03
-1.0520046261632e-02
-2.3750803841011e-17
-1.2841019480375e-17
 3.3203691532369e-18
 5.6175907935341e-03
-3.9501267059478e-02
 2.7189048812772e-03
-1.8660332886611e-02
 3.7745402059386e-03
-1.9873780628318e-02
 1.8603121632026e-03
-9.3964406789411e-03
-2.3764356368167e-17
 1.6141059842878e-17
-2.7796233197097e-17
 5.2036516560818e-03
-3.5272550259741e-02
 2.5380527940655e-03
-1.6568144629332e-02
 3.5992107580114e-03
-1.7721275869290e-02
 1.7828409773415e-03
-8.3305534493832e-03
 5.1126908696270e-17
-4.3090260092721e-17
 3.1045451582765e-17
 4.9191385413536e-03
-3.1091910647461e-02
 2.4108596049306e-03
-1.4501289208454e-02
 3.4693446479537e-03
-1.5610792354533e-02
 1.7175902394229e-03
-7.2815330649547e-03
 5.0821976835258e-19
-6.5458706163812e-18
 6.4857312771262e-18
 4.7092902383525e-03
-2.6944384184596e-02
 2.3145883790328e-03
-1.2435723149679e-02
 3.3651933069336e-03
-1.3522243945061e-02
 1.6660734194289e-03
-6.2412615791203e-03
 1.9355549877708e-17
 1.3193385186433e-17
 4.0863410474389e-17
 4.5450112479699e-03
-2.2806505349365e-02
 2.2392722281115e-03
-1.0367959963901e-02
 3.2809264368439e-03
-1.1442159241963e-02
 1.6248119691511e-03
-5.2014004014325e-03
-2.9631753593797e-17
 2.1765358612647e-17
 4.3647396013777e-17
 4.4147677074164e-03
-1.8662985201615e-02
 2.1807632546391e-03
-8.2938740112013e-03
 3.2121363573765e-03
-9.3613056101347e-03
 1.5920776688603e-03
-4.1594572984423e-03
-1.0749271617131e-17
-1.0369377340287e-17
-6.4682612225891e-18
 4.3157077611511e-03
-1.4507236921560e-02
 2.1387125999226e-03
-6.2128452290153e-03
 3.1584085400027e-03
-7.2747283889498e-03
 1.5680307797652e-03
-3.1143347493128e-03
-1.3111858265260e-17
-3.7269449679189e-20
 7.3528812568778e-18
 4.2498746021238e-03
-1.0340485088847e-02
 2.1144843158005e-03
-4.1275417912630e-03
 3.1223618076410e-03
-5.1819040210468e-03
 1.5543041234878e-03
-2.0669380633365e-03
-5.9927581018242e-18
 1.0703108321505e-17
 9.6938685648518e-18
 4.2214984197670e-03
-6.1719424973177e-03
 2.1101069783000e-03
-2.0447708060374e-03
 3.1080797656386e-03
-3.0870230727515e-03
 1.5530612216708e-03
-1.0205096260165e-03
-1.6493425548936e-17
-3.1009876198980e-18
 3.8353651851675e-18
 4.2347273442402e-03
-2.0197473217536e-03
 2.1271272139494e-03
 2.3936244360811e-05
 3.1198571418827e-03
-9.9937809466155e-04
 1.5663357437177e-03
 1.9035879859075e-05
-4.7815009872505e-19
 7.5301229010907e-19
 6.4706964423124e-18
 4.2914945852175e-03
 2.0879419917463e-03
 2.1654807291647e-03
 2.0616974406948e-03
 3.1610367153689e-03
 1.0660544498791e-03
 1.5954114143995e-03
 1.0427980141969e-03
 4.6603752757932e-18
-1.5983511714689e-18
 2.3339992861592e-18
 4.3892873435709e-03
 6.1115224841757e-03
 2.2223314784000e-03
 4.0454978282014e-03
 3.2328464100146e-03
 3.0879726360027e-03
 1.6402042188588e-03
 2.0385216684531e-03
 5.3108965792845e-18
 2.2734364304305e-18
-5.9766644758263e-18
 4.5188646577259e-03
 9.9981831982774e-03
 2.2909278348138e-03
 5.9452409598180e-03
 3.3332194286686e-03
 5.0379030402503e-03
 1.6986635925775e-03
 2.9901047491876e-03
-3.0374601488539e-18
-3.1424922343135e-18
-3.3237572850259e-18
 4.6620411231260e-03
 1.3679687923442e-02
 2.3596831094146e-03
 7.7225243186376e-03
 3.4556907990009e-03
 6.8790754581904e-03
 1.7661549842671e-03
 3.8769354847972e-03
-1.7025362239811e-17
-1.7298953881775e-17
-5.7259427234391e-19
 4.7898879668367e-03
 1.7069313056453e-02
 2.4112915586443e-03
 9.3288748123541e-03
 3.5884662291892e-03
 8.5650117900364e-03
 1.8353983927852e-03
 4.6730913952757e-03
-3.2305836608279e-17
 3.8412944157982e-18
 7.3793510364795e-18
 4.8617903452737e-03
 2.0058177088245e-02
 2.4235649646531e-03
 1.0703793163145e-02
 3.7139816274134e-03
 1.0037569941730e-02
 1.8952365488616e-03
 5.3462222699778e-03
 6.3036191934665e-17
 3.1518095967332e-17
 7.8164200372627e-17
 4.8265084604111e-03
 2.2509595029391e-02
 2.3677745138269e-03
 1.1771637007371e-02
 3.8092183077651e-03
 1.1225343633892e-02
 1.9345349495410e-03
 5.8568566035575e-03
-1.6374163309962e-16
-1.2511693070483e-16
-7.7276509843904e-17
 4.6251983245114e-03
 2.4255927860779e-02
 2.2213397347297e-03
 1.2440066007855e-02
 3.8477637956476e-03
 1.2040172330314e-02
 1.9319200463741e-03
 6.1555584605202e-03
 4.7501607682021e-18
 1.6164099139043e-16
 4.6295432765131e-17
 4.2014436893467e-03
 2.5082371418833e-02
 1.9425980151624e-03
 1.2588246308212e-02
 3.8004836666801e-03
 1.2378161048003e-02
 1.8924379568688e-03
 6.1875118737191e-03
 3.8916081728652e-17
-2.5485527316987e-17
 5.0855858153148e-17
 3.4976651376084e-03
 2.4746889072830e-02
 1.5282766966198e-03
 1.2087097958442e-02
 3.6430621452723e-03
 1.2111708152339e-02
 1.7549746525560e-03
 5.8915054859341e-03
-4.5319650809894e-17
 2.6468085535802e-17
 4.2992004270839e-17
 2.5066001250522e-03
 2.2999597937378e-02
 9.7230480638544e-04
 1.0898574084990e-02
 3.3733265649971e-03
 1.1147306883847e-02
 1.5949009008978e-03
 5.1740606155448e-03
 5.7123901962830e-18
-1.9420771414647e-17
 1.5351625136037e-17
 1.6216836059257e-03
 1.9493387973938e-02
 1.0037273966841e-03
 8.3207230899802e-03
 3.1630871124548e-03
 9.2754952936645e-03
 1.5863507546641e-03
 4.0576036159479e-03
-1.1465437974034e-16
-4.9520934228275e-17
 2.4299681190831e-17
 1.1353405791894e-03
 9.4811494199547e-03
-2.6971658158583e-03
 1.2794370028360e-03
 2.7436821102924e-03
 8.9376105585401e-03
-7.3840106610135e-04
 4.7943423542449e-03
-2.6671373443143e-17
 8.9880360099048e-17
-4.7054374285871e-17
-1.8310171957331e-02
 1.8850617653428e-03
-8.3585887434765e-03
 3.6397575566909e-03
-1.7997756063259e-17
 5.7571135358980e-17
 6.8304736866587e-18
 1.2051793045306e-02
-5.9912035881193e-03
 8.7833412343104e-03
-1.0355173095564e-02
 4.9532303990887e-03
-2.7810394631809e-03
 2.4874766914058e-03
-4.9360619406773e-03
-9.1072982488782e-18
-1.7835125737386e-17
 2.2334564753201e-17
 1.3179335875820e-02
-4.3910563313604e-02
 5.6726744789572e-03
-3.2116730298128e-02
 5.8139222503222e-03
-2.0774234809007e-02
 3.3663044004246e-03
-1.6765836932910e-02
 6.8304736866587e-18
 4.9602249391212e-17
-1.3335686721572e-17
 1.4020017601288e-02
-6.7943340845101e-02
 7.4228022853236e-03
-3.1156284040435e-02
 6.5362997496265e-03
-3.4674869090224e-02
 4.4619008193472e-03
-1.6453563297247e-02
 5.3125906451790e-18
 5.3125906451790e-18
 3.6537613212761e-17
 1.3196988000232e-02
-5.5640133224429e-02
 6.3027508238118e-03
-2.5736133228406e-02
 7.0497887479632e-03
-2.8736959111998e-02
 2.9430204261800e-03
-1.3190430802283e-02
 7.4010350799292e-17
-3.2200804522820e-17
-2.8907540423895e-17
 1.0630311062737e-02
-4.9226564523082e-02
 5.1275583981205e-03
-2.3280749499037e-02
 6.0169456784536e-03
-2.4680037759510e-02
 3.0506028234996e-03
-1.1800691597486e-02
 1.8783802638311e-17
-5.9997037719917e-17
-1.5056857670392e-17
 9.8964135233146e-03
-4.4618265650271e-02
 4.8588432128192e-03
-2.1060480458289e-02
 5.8430010449797e-03
-2.2425328171851e-02
 2.9743740064276e-03
-1.0617659029592e-02
-3.3345993067507e-17
-5.0483163656356e-19
 1.5585406229479e-17
 9.4689999191004e-03
-3.9926209326275e-02
 4.6846365719073e-03
-1.8866074939922e-02
 5.6694909908401e-03
-2.0075291725558e-02
 2.8278039647489e-03
-9.4924729477128e-03
-2.0254251834745e-17
-4.3754333923368e-17
 5.3837414127483e-18
 9.1457886135871e-03
-3.5556951046800e-02
 4.5431890137007e-03
-1.6712472019606e-02
 5.5196834750859e-03
-1.7843029549809e-02
 2.7615210184990e-03
-8.3990753579854e-03
-2.5607500061392e-17
 1.9820570965751e-17
-7.9900617914498e-18
 8.9168078212438e-03
-3.1320097047818e-02
 4.4287615288105e-03
-1.4605765975716e-02
 5.4335768692795e-03
-1.5708158018793e-02
 2.7161574502799e-03
-7.3312491265796e-03
 1.4430053289424e-17
-1.2979932883725e-17
 3.3229102520786e-18
 8.7324149152010e-03
-2.7132034769082e-02
 4.3327990983340e-03
-1.2519792892476e-02
 5.3599330146881e-03
-1.3611096667857e-02
 2.6710415844633e-03
-6.2817652698897e-03
 2.3622901865975e-17
 1.1367182152153e-17
 2.4394548880924e-18
 8.5681619927271e-03
-2.2962152841941e-02
 4.2501555311052e-03
-1.0438042293345e-02
 5.2827114702723e-03
-1.1522845946626e-02
 2.6270185746000e-03
-5.2366601457834e-03
 1.9957366786732e-17
-9.1360973690849e-18
 1.5284709533204e-17
 8.4217902382591e-03
-1.8789346785880e-02
 4.1802014456849e-03
-8.3497925398888e-03
 5.2064366440163e-03
-9.4308342821385e-03
 2.5872917832999e-03
-4.1888410101052e-03
-3.8412944157982e-18
-9.1204272595607e-18
 3.2314306937752e-18
 8.3001942899585e-03
-1.4601149121219e-02
 4.1262711821481e-03
-6.2512675696098e-03
 5.1393279787249e-03
-7.3283274822309e-03
 2.5553863248149e-03
-3.1351255541097e-03
 1.5492232605281e-18
-2.2601380131586e-17
-1.2502841576184e-17
 8.2148331822083e-03
-1.0394806821594e-02
 4.0940997593104e-03
-4.1438900383355e-03
 5.0903603049619e-03
-5.2134385354457e-03
 2.5355602657271e-03
-2.0756165080797e-03
-8.8718230895415e-18
-1.2021091587433e-17
 1.8380614955418e-18
 8.1795054166633e-03
-6.1778465439204e-03
 4.0905618374190e-03
-2.0343560389620e-03
 5.0690714238044e-03
-3.0895711319197e-03
 2.5326239421020e-03
-1.0134518133782e-03
 7.8579246516781e-18
-5.4819972346298e-18
-1.0222840640412e-17
 8.2084677320608e-03
-1.9690113297060e-03
 4.1224251740140e-03
 6.4848376041482e-05
 5.0852301729947e-03
-9.6619882728533e-04
 2.5514567000187e-03
 4.4998819163311e-05
-1.1711077528738e-17
-4.7416904387296e-18
-4.4105005563531e-18
 8.3143436040984e-03
 2.2005493426747e-03
 4.1951025211482e-03
 2.1347071398168e-03
 5.1479496106594e-03
 1.1403503904539e-03
 2.5963435774941e-03
 1.0898075641990e-03
 4.2410939669023e-18
 6.0901668907584e-18
-4.2885278119485e-18
 8.5057015794661e-03
 6.2857985926286e-03
 4.3113609121050e-03
 4.1488587008871e-03
 5.2644461487716e-03
 3.2061291053154e-03
 2.6702401051750e-03
 2.1070696689378e-03
 1.3722780778467e-17
-4.8450284582946e-18
 7.1963919198725e-18
 8.7844685143210e-03
 1.0226096812616e-02
 4.4699987631240e-03
 6.0726572651220e-03
 5.4386628958127e-03
 5.1986970796314e-03
 2.7740858005529e-03
 3.0783983391984e-03
-2.1463814883424e-18
 9.3105861562193e-18
 2.0623558199748e-17
 9.1433761292734e-03
 1.3943249928019e-02
 4.6647623563523e-03
 7.8621979803870e-03
 5.6698562884208e-03
 7.0760635736171e-03
 2.9059240273028e-03
 3.9803643638265e-03
-1.1734794451261e-17
-1.5815799191132e-17
-2.1091120386632e-17
 9.5637284764223e-03
 1.7338986906196e-02
 4.8829394251158e-03
 9.4627967308725e-03
 5.9514782475958e-03
 8.7855586375749e-03
 3.0609680534894e-03
 4.7838007357939e-03
 2.2852948916921e-17
-1.5128008437962e-17
 1.7282860255777e-17
 1.0013807537504e-02
 2.0292715946169e-02
 5.1066045670698e-03
 1.0808172600662e-02
 6.2699769284791e-03
 1.0262199850311e-02
 3.2290731382858e-03
 5.4532025176854e-03
 8.8897801880233e-17
 2.1080955991265e-17
 5.9119511586561e-17
 1.0448498050366e-02
 2.2657122869219e-02
 5.3081824030130e-03
 1.1817666814352e-02
 6.6050771810069e-03
 1.1428335266403e-02
 3.4009608146164e-03
 5.9460657955128e-03
 1.4423277025846e-17
-8.0598573063036e-17
-2.3445871979999e-17
 1.0811500226204e-02
 2.4259078140041e-02
 5.4675467628602e-03
 1.2398142228449e-02
 6.9288923158410e-03
 1.2190286206687e-02
 3.5500592237412e-03
 6.2117019333812e-03
-1.6360271969627e-16
 3.8736510743834e-17
-2.6820451241860e-17
 1.1039447560336e-02
 2.4883809008685e-02
 5.5293900055631e-03
 1.2429790176384e-02
 7.2096566184996e-03
 1.2443263992575e-02
 3.6876291674872e-03
 6.1956868732551e-03
 9.9340024053984e-18
-1.1289255121005e-17
-5.1160790014160e-17
 1.1058314118991e-02
 2.4311808332776e-02
 5.5028175232934e-03
 1.1801577453582e-02
 7.4079026878735e-03
 1.2063771819186e-02
 3.7270511180196e-03
 5.8441042803707e-03
 6.9151769813841e-18
-1.9481757786849e-17
-2.4814677222762e-17
 1.0833571608551e-02
 2.2314606029752e-02
 5.3519157558419e-03
 1.0493536910189e-02
 7.5147649499172e-03
 1.0978823432284e-02
 3.7673659102637e-03
 5.0568675680438e-03
 5.0974442765764e-17
 4.2067044292438e-17
-1.4596071747086e-17
 1.0712797629999e-02
 1.8581084518033e-02
 5.8027628247466e-03
 7.7948464614792e-03
 7.6624932857499e-03
 8.9542744843953e-03
 3.9377245390710e-03
 3.8387871607313e-03
 3.9275223698287e-17
 6.4537134317200e-17
 2.1873778829895e-17
 1.0666758255752e-02
 7.9571471158602e-03
 2.0761874704824e-03
 3.6466036351612e-04
 7.2276339803352e-03
 8.9643497912704e-03
 1.4301272488808e-03
 5.1912132098835e-03
-5.3342746886287e-17
-8.7603535536829e-17
-2.1250362580716e-17
-7.0615390805599e-03
 1.3233485089401e-03
-3.1748919611232e-03
 3.6408660134342e-03
-2.2551405187699e-17
 1.9624059321988e-17
 3.0628711372716e-17
 5.4830619576962e-03
-4.7260940615237e-03
 3.0372173412534e-03
-8.2724861962760e-03
 4.6647505319264e-04
-2.0626412626896e-03
-1.0937863300713e-03
-3.3550214469846e-03
-5.6378512969246e-18
-7.1557343384043e-18
-1.3010426069826e-18
 6.6986593679232e-03
-3.6821963493188e-02
 3.6493644409892e-03
-3.0367376613679e-02
 1.1545807996693e-03
-1.5889822373520e-02
 1.0637137865457e-03
-1.4284792650161e-02
-3.6429192995513e-17
-6.0390061007443e-17
-4.3693347551166e-17
 1.2416753700792e-02
-6.9944864563729e-02
 7.1725160426164e-03
-3.2947449338934e-02
 4.5596293789671e-03
-3.4064795255002e-02
 4.2474028499413e-03
-1.7640480758050e-02
-8.6736173798840e-19
 2.2334564753201e-17
-2.8080836267375e-17
 1.5319938261843e-02
-5.9783079173361e-02
 7.4315804085976e-03
-2.6347114865871e-02
 7.5907286191921e-03
-3.0494452723897e-02
 4.1627480692128e-03
-1.3209420762770e-02
-2.5912431922404e-17
-5.4047478298402e-17
-4.3801767768414e-17
 1.3645166389999e-02
-4.9242248837103e-02
 6.6894769917649e-03
-2.3682821579740e-02
 7.5119411890512e-03
-2.4774420815504e-02
 3.5531834835894e-03
-1.1936555456344e-02
-7.8414922125014e-17
-6.3967928176645e-18
 1.2793585635329e-17
 1.3118019522075e-02
-4.4910128560431e-02
 6.6548734139218e-03
-2.1202462220174e-02
 7.1575316658539e-03
-2.2410238547661e-02
 3.7258274393679e-03
-1.0671242548341e-02
 8.0569773942829e-18
-1.4880674817363e-17
-2.4740138323404e-17
 1.3071640934356e-02
-4.0335766174927e-02
 6.5790717070389e-03
-1.8912395635084e-02
 7.3748654720021e-03
-2.0153976802744e-02
 3.8347192431445e-03
-9.4562417848607e-03
-1.5077186461126e-17
-5.2685449319217e-17
-2.5078951502305e-17
 1.3005525036903e-02
-3.5805709012529e-02
 6.5024754951342e-03
-1.6783866024980e-02
 7.4863093855129e-03
-1.7946916076312e-02
 3.7822348073320e-03
-8.4039222254404e-03
 6.4747198488119e-17
-5.3461331498902e-17
 1.4660446251077e-17
 1.2889394007992e-02
-3.1493451109412e-02
 6.4235516991804e-03
-1.4695533252791e-02
 7.4426985823379e-03
-1.5795725012445e-02
 3.7207000429191e-03
-7.3683194761998e-03
 1.2565733772517e-17
 3.6013299818411e-17
-4.1555436392296e-18
 1.2736807477481e-02
-2.7294495709988e-02
 6.3377411056553e-03
-1.2610765958698e-02
 7.3623860204179e-03
-1.3692949763719e-02
 3.6714516374303e-03
-6.3278323438567e-03
-2.0817952261143e-17
-1.7418385527337e-17
-3.7330859567865e-18
 1.2566750877994e-02
-2.3123047287626e-02
 6.2486328733637e-03
-1.0522500101331e-02
 7.2742477956922e-03
-1.1606619516280e-02
 3.6228769977953e-03
-5.2824910525260e-03
 1.8814295824413e-17
-1.7411609263759e-17
 1.4817994379267e-17
 1.2394091809710e-02
-1.8939242211189e-02
 6.1624712718036e-03
-8.4222806474941e-03
 7.1818799503376e-03
-9.5131880932335e-03
 3.5738416010389e-03
-4.2296061934479e-03
 6.4535440251305e-18
 1.5280474368468e-18
 3.8442590311136e-17
 1.2236135042315e-02
-1.4724246694357e-02
 6.0885807874431e-03
-6.3046699489178e-03
 7.0932831594064e-03
-7.3996314948346e-03
 3.5293412803838e-03
-3.1661698911023e-03
 1.7219756301206e-17
-1.9654552508089e-17
-1.1418851161935e-17
 1.2114047565575e-02
-1.0472524587684e-02
 6.0385335278958e-03
-4.1691737521887e-03
 7.0211191535918e-03
-5.2613581702943e-03
 3.4969860158185e-03
-2.0913662811779e-03
 7.1426053277219e-18
-3.3254513509204e-18
-9.5013803275883e-18
 1.2052355942501e-02
-6.1902306355393e-03
 6.0252101698239e-03
-2.0215464428475e-03
 6.9806569545108e-03
-3.1007867659731e-03
 3.4851991317453e-03
-1.0076935247696e-03
-6.2849844686269e-18
-1.3366179907673e-18
 2.2434091124504e-17
 1.2077205482868e-02
-1.8963414518964e-03
 6.0616740020301e-03
 1.2531239826785e-04
 6.9882371390122e-03
-9.2745020603502e-04
 3.5024711349649e-03
 7.8457236384111e-05
-5.0821976835258e-18
 1.5653168865259e-18
-7.7147760835922e-18
 1.2213980855506e-02
 2.3754561411806e-03
 6.1598751314520e-03
 2.2505088654725e-03
 7.0599654030730e-03
 1.2411009404225e-03
 3.5567181644467e-03
 1.1563414501268e-03
 2.0198347660226e-17
 1.2044808509956e-17
 1.9820570965751e-18
 1.2484434240506e-02
 6.5748799416099e-03
 6.3291852887737e-03
 4.3243378584066e-03
 7.2102159786027e-03
 3.3782583667055e-03
 3.6544842080701e-03
 2.2104241415661e-03
-1.3891340334970e-19
-2.4868887331386e-18
 7.3810451023740e-18
 1.2903531609837e-02
 1.0633207396523e-02
 6.5747457216077e-03
 6.3073255184349e-03
 7.4499895453641e-03
 5.4473559663322e-03
 3.8001821509397e-03
 3.2198374654513e-03
 3.1374100366299e-18
-1.8838012746936e-18
 1.9504627676425e-17
 1.3476266691754e-02
 1.4461498002589e-02
 6.8962223527169e-03
 8.1495603432131e-03
 7.7850108075950e-03
 7.4005552922518e-03
 3.9947899174422e-03
 4.1579846976134e-03
-2.4572425799847e-18
 2.6461309272224e-18
 5.8148811829008e-18
 1.4194540156083e-02
 1.7948349434164e-02
 7.2853679501428e-03
 9.7890326755987e-03
 8.2144792111194e-03
 9.1779575349307e-03
 4.2363974449131e-03
 4.9916447375438e-03
-2.1396052247644e-18
 1.1675502144953e-17
 2.0706567428579e-17
 1.5034813352500e-02
 2.0958864145172e-02
 7.7279339498570e-03
 1.1152208519263e-02
 8.7283196484691e-03
 1.0705888199153e-02
 4.5152869999896e-03
 5.6812459166054e-03
 1.1539976873393e-17
-3.1136931141068e-17
 3.5778671692022e-18
 1.5955237930626e-02
 2.3330533938619e-02
 8.1949851438292e-03
 1.2150269981532e-02
 9.3087170562285e-03
 1.1897820825404e-02
 4.8242263071785e-03
 6.1791921629322e-03
 1.3820189567401e-17
 3.3183362741635e-17
 3.5195913024311e-17
 1.6897689107552e-02
 2.4877964473298e-02
 8.6664819934441e-03
 1.2685411000632e-02
 9.9229236158180e-03
 1.2649947041393e-02
 5.1285030890398e-03
 6.4317555789586e-03
 2.0748919075941e-17
-9.0666406674100e-18
 9.0598644038320e-18
 1.7782130765916e-02
 2.5376213318957e-02
 9.0641090925168e-03
 1.2631400204214e-02
 1.0536469883164e-02
 1.2851119159718e-02
 5.4467481492537e-03
 6.3807887249681e-03
 2.8561950981415e-17
 3.0521985221362e-17
 3.4308222495588e-17
 1.8512522716890e-02
 2.4619367111143e-02
 9.4149731897577e-03
 1.1894144852761e-02
 1.1086507680204e-02
 1.2376570973402e-02
 5.6546869141698e-03
 5.9784199391970e-03
-3.4220131069074e-19
-1.7049079162335e-17
 2.0430434687774e-18
 1.9016843110137e-02
 2.2380250801419e-02
 9.6409815120140e-03
 1.0459631849358e-02
 1.1561792776377e-02
 1.1169931407382e-02
 5.8921897802406e-03
 5.1112473424411e-03
-1.2168475320255e-17
-2.4801124695606e-17
 2.5656627972333e-17
 1.9590067603701e-02
 1.8355271230895e-02
 1.0469853411063e-02
 7.5820056356974e-03
 1.2048404665052e-02
 8.9366350032929e-03
 6.1976927354976e-03
 3.7278791882045e-03
-6.9768409799442e-17
 8.8403134639037e-17
 1.8187491443444e-17
 1.9797411952688e-02
 6.7478881782463e-03
 6.7982826026167e-03
-5.6348427801822e-04
 1.1445181316617e-02
 9.2373694086305e-03
 3.5350614366791e-03
 5.8116423379175e-03
 3.1333442784831e-17
-2.6779793660392e-17
 2.4286128663675e-17
 3.3319058259451e-03
 9.1491804048616e-04
 1.5516401933269e-03
 3.7088952959365e-03
-3.8489177123235e-17
-1.1687699419394e-16
 6.1257422745431e-18
-3.7534979961582e-03
-3.8019568224565e-03
-5.0076242038379e-03
-5.6196594431341e-03
-3.4242044707935e-03
-1.5581460743972e-03
-3.6309704910811e-03
-1.9448127929946e-03
 1.4311468676809e-17
-2.0599841277225e-18
 2.0166160408230e-17
-3.2846488759646e-03
-2.3404170185214e-02
 1.0241845669512e-04
-2.3832686452881e-02
-4.8061848832166e-03
-9.0568268718290e-03
-3.5166777553020e-03
-9.6277629664936e-03
 7.5243630770494e-17
-1.4311468676809e-17
-3.4043948216045e-17
 6.0853048202496e-03
-6.3610238724682e-02
 5.0617137633308e-03
-3.3250345537922e-02
 1.3135475750232e-03
-2.7460498900329e-02
 5.0228808966892e-03
-1.6400947761671e-02
 1.4094628242312e-16
 1.5287250632046e-17
 2.2470090024762e-17
 1.6771607032465e-02
-6.1739448040921e-02
 8.8475892200654e-03
-2.6844864942177e-02
 7.4982658647969e-03
-3.1964959489755e-02
 3.6828876668196e-03
-1.3995375298187e-02
 8.0230960763927e-18
-3.3610267347051e-18
 9.2157184661268e-18
 1.6107875594521e-02
-5.0007588786638e-02
 8.1465969047461e-03
-2.3238542417431e-02
 8.3687095263940e-03
-2.4618275083589e-02
 4.9338723329200e-03
-1.1176017394917e-02
 4.6891743959998e-17
 3.4423418976415e-17
-5.6920614055489e-18
 1.6247886856597e-02
-4.4576117006777e-02
 8.3404764055626e-03
-2.1224730718416e-02
 9.2326578206610e-03
-2.2205624892150e-02
 4.8188925327395e-03
-1.0573767530502e-02
-6.9917487598159e-17
-5.8479154678437e-17
-7.4505018040488e-18
 1.6833603430115e-02
-3.9960599351716e-02
 8.5134568562211e-03
-1.9074319978358e-02
 9.2692860768580e-03
-2.0004987740744e-02
 4.5806250171836e-03
-9.6055858240902e-03
 7.4606661994159e-17
-1.5097515251861e-17
-1.0638733817514e-18
 1.6869577478232e-02
-3.5799278265031e-02
 8.4795227970815e-03
-1.6857326943295e-02
 9.2924450507326e-03
-1.7848899401267e-02
 4.7144129520262e-03
-8.4331681662064e-03
-2.5397435890473e-17
 8.1992789294216e-19
-2.6454533008646e-17
 1.6841028274861e-02
-3.1634736678051e-02
 8.4278837136296e-03
-1.4754251378292e-02
 9.3943856953729e-03
-1.5833335520275e-02
 4.7430059418048e-03
-7.3722459151071e-03
-1.4165779009881e-17
-1.6456156099257e-17
-1.8057048369567e-17
 1.6731310882818e-02
-2.7474884314806e-02
 8.3515639325356e-03
-1.2688422759425e-02
 9.3699290010818e-03
-1.3792625140875e-02
 4.7015133312414e-03
-6.3511052016310e-03
-4.4015220071122e-17
 2.6867885086906e-17
-3.9058383263790e-17
 1.6553109312874e-02
-2.3319197817962e-02
 8.2491205314668e-03
-1.0614915485462e-02
 9.2744886497371e-03
-1.1725205303184e-02
 4.6339802682240e-03
-5.3250003179244e-03
 2.7342223537369e-17
 2.1362170929754e-18
-2.8595832299305e-18
 1.6339183641904e-02
-1.9135843715972e-02
 8.1343302468735e-03
-8.5157330738639e-03
 9.1521876406091e-03
-9.6327343616913e-03
 4.5598247402694e-03
-4.2799730793490e-03
-5.9029726094152e-18
-5.8699383244723e-19
-9.8645457037236e-18
 1.6121795133714e-02
-1.4899843883001e-02
 8.0248817882733e-03
-6.3833345063813e-03
 9.0251330423143e-03
-7.5078243357645e-03
 4.4896981516445e-03
-3.2122212003287e-03
-1.3220490240745e-17
-1.3442412872926e-18
 3.5778671692022e-18
 1.5934301167960e-02
-1.0599229888527e-02
 7.9396282245039e-03
-4.2164246497691e-03
 8.9113787744850e-03
-5.3433083237699e-03
 4.4332754184069e-03
-2.1218559865446e-03
-2.0418576226512e-17
-3.5033282698438e-18
 1.0370647889708e-17
 1.5813640258571e-02
-6.2363004052059e-03
 7.8983639097068e-03
-2.0202419004249e-03
 8.8315721065442e-03
-3.1383090955614e-03
 4.4014648924531e-03
-1.0119150833958e-03
-6.0742850229974e-18
-1.7819879144336e-17
-3.8023309002246e-18
 1.5799858039927e-02
-1.8287909743861e-03
 7.9213486581971e-03
 1.9196338917027e-04
 8.8091162690489e-03
-9.0064895429620e-04
 4.4061426827255e-03
 1.1077071920340e-04
 5.0686451563697e-18
 1.3352627380517e-17
-2.9621589198430e-17
 1.5933516652069e-02
 2.5879264995723e-03
 8.0280965877826e-03
 2.3974876867783e-03
 8.8683086021320e-03
 1.3518014919533e-03
 4.4591976515562e-03
 1.2345311354949e-03
-3.9773279071273e-17
 1.3871011544236e-17
-5.2126407574030e-18
 1.6252080364111e-02
 6.9585178920022e-03
 8.2356825387571e-03
 4.5631414935769e-03
 9.0320710764331e-03
 3.5899875125800e-03
 4.5712987511024e-03
 2.3420872151405e-03
 1.4518144715939e-17
-1.6303690168751e-17
-5.0144350477455e-18
 1.6785878554074e-02
 1.1205615828516e-02
 8.5565697978840e-03
 6.6440845176316e-03
 9.3198384241191e-03
 5.7726922710462e-03
 4.7509475167828e-03
 3.4097470248327e-03
 7.7317167425373e-18
 7.8604657505199e-19
 4.1013335306053e-18
 1.7554151000212e-02
 1.5228179569618e-02
 8.9972367372049e-03
 8.5835804175645e-03
 9.7448303591250e-03
 7.8453797662998e-03
 5.0024853269264e-03
 4.4072546166376e-03
 1.5321131949936e-17
 2.0952206983282e-17
-3.1407981684189e-18
 1.8560575014092e-02
 1.8899197367389e-02
 9.5541595878572e-03
 1.0310601406729e-02
 1.0313166348283e-02
 9.7395321679130e-03
 5.3275110692112e-03
 5.2962438745396e-03
 4.9448089394812e-17
 8.4500006818089e-18
 9.8526872424620e-18
 1.9790540355771e-02
 2.2065604410358e-02
 1.0217428324154e-02
 1.1742330333902e-02
 1.1018181300074e-02
 1.1370443565628e-02
 5.7166471656984e-03
 6.0319858263256e-03
 2.0277968757268e-17
 9.6629518622771e-18
 5.2017987356781e-17
 2.1204094848926e-02
 2.4543136285601e-02
 1.0954896234992e-02
 1.2777204118947e-02
 1.1845696849434e-02
 1.2639208514344e-02
 6.1657241937496e-03
 6.5589189495654e-03
 1.6839014991415e-17
 1.4507980320572e-17
-2.3344228026328e-18
 2.2739557721557e-02
 2.6124891859894e-02
 1.1746160513192e-02
 1.3307977344027e-02
 1.2754719602583e-02
 1.3426080056293e-02
 6.6296389477145e-03
 6.8182708574653e-03
 8.1992789294216e-19
-6.2341624917916e-18
 3.0056117100372e-17
 2.4291356943657e-02
 2.6563233825740e-02
 1.2480908120079e-02
 1.3193508623033e-02
 1.3711042705665e-02
 1.3607177035576e-02
 7.1372744062330e-03
 6.7429631483407e-03
 2.6654432784198e-17
-3.5250123132935e-17
 9.4190063734678e-18
 2.5743978018674e-02
 2.5656959141102e-02
 1.3215516469950e-02
 1.2357224984612e-02
 1.4618796410559e-02
 1.3051201527276e-02
 7.5112718844679e-03
 6.2910119977033e-03
-2.3513634615779e-18
-1.3037531124138e-17
-1.5924219408381e-18
 2.6974995090981e-02
 2.3153655936994e-02
 1.3803078249854e-02
 1.0768536515911e-02
 1.5472578222898e-02
 1.1710466127251e-02
 7.9569692272088e-03
 5.3246840213603e-03
-2.2541240792331e-17
-1.8688934948219e-17
 2.6031016535019e-17
 2.8211577725180e-02
 1.8722466296723e-02
 1.4960906835174e-02
 7.6304511218836e-03
 1.6293373196305e-02
 9.1790007520256e-03
 8.3318525344680e-03
 3.6878582174040e-03
 1.1573858191283e-17
 5.9089018400460e-18
 1.5924219408381e-17
 2.8540334412064e-02
 5.7014084518343e-03
 1.1414505731880e-02
-1.5800262454206e-03
 1.5348285316151e-02
 9.7079744284727e-03
 5.5228794689413e-03
 6.6979168307455e-03
 4.6620693416877e-17
 1.3129688308800e-16
 1.3986208025063e-17
 1.2908374052167e-02
 5.5934364186072e-04
 5.8417520042440e-03
 3.8333018835033e-03
-1.1877434799579e-16
 2.6562953225895e-17
 3.0384765883906e-17
-8.1153895262119e-03
-2.6525853649697e-03
-9.1442407774327e-03
-3.0696780877060e-03
-4.1622612799976e-03
-1.2775574205516e-03
-5.0078686853290e-03
-1.4567251517867e-03
-1.4311468676809e-17
-6.2341624917916e-18
-2.8297676701872e-17
-1.2054199380923e-02
-1.3612473531715e-02
-3.6642326681937e-03
-1.3914172790226e-02
-6.8341950989392e-03
-4.4060925121645e-03
-2.7313695787097e-03
-3.5644671642085e-03
-3.9356538861224e-17
-1.5178830414797e-18
-1.0516761073109e-17
 1.3519471090060e-03
-3.9976845920894e-02
 3.2838658311205e-03
-3.0224553186727e-02
-1.5285995317242e-03
-1.5003483910355e-02
-1.2825061597255e-04
-1.3958398552328e-02
-1.6046192152785e-17
-1.8214596497756e-17
-1.6696713456277e-17
 1.3877588600696e-02
-6.5865833413870e-02
 9.2890871169833e-03
-2.6094007984142e-02
 6.6046222328708e-03
-3.0883784775803e-02
 8.3522407286338e-03
-1.2651374482815e-02
 3.2526065174565e-18
-2.7321894746635e-17
 2.3201926491190e-17
 2.1250411341800e-02
-4.7636718996539e-02
 1.0661900421606e-02
-2.3609165961147e-02
 1.0878229885492e-02
-2.5378503363140e-02
 3.5222667039889e-03
-1.2175207750410e-02
-9.0801931945661e-18
 5.2827750854356e-17
-1.4982318771034e-17
 1.9429842125611e-02
-4.3870620409571e-02
 9.9838371985150e-03
-2.0655547523859e-02
 1.0185009392359e-02
-2.0989830894057e-02
 5.8686021054726e-03
-9.9412203516138e-03
-1.0218605475676e-17
-1.2366681029913e-17
-8.0773061850170e-18
 2.0367967650955e-02
-4.0270312482925e-02
 1.0333598571714e-02
-1.8759173235708e-02
 1.1549965934364e-02
-2.0110959685798e-02
 6.1512766674241e-03
-9.1557368835993e-03
 2.4157379655693e-18
-2.7267684638010e-17
 6.1528473288552e-18
 2.0983267290269e-02
-3.5586504841284e-02
 1.0569947042741e-02
-1.6919588983569e-02
 1.1583350053854e-02
-1.7943268851127e-02
 5.7949494601246e-03
-8.4866331368403e-03
-4.7366082410460e-17
 2.3698287798281e-17
-1.1153729849445e-17
 2.0910235567655e-02
-3.1592381638866e-02
 1.0536885375640e-02
-1.4859768081010e-02
 1.1392378627932e-02
-1.5800301413494e-02
 5.7465462324586e-03
-7.4803857502701e-03
 8.6736173798840e-19
-2.6874661350484e-17
 9.5477553814505e-18
 2.0762632640135e-02
-2.7611949741342e-02
 1.0413727523355e-02
-1.2808662885107e-02
 1.1370985860310e-02
-1.3823557756984e-02
 5.6911317280424e-03
-6.4461545623402e-03
-1.9851064151852e-17
 3.6422416731935e-18
-4.2419409998495e-18
 2.0552686834769e-02
-2.3548104905515e-02
 1.0256813507624e-02
-1.0749279255379e-02
 1.1289618367527e-02
-1.1832150595529e-02
 5.6143387285772e-03
-5.4091942161847e-03
-3.2014457274423e-17
 9.7348173138957e-18
 6.7356059965662e-18
 2.0278999511206e-02
-1.9399520928360e-02
 1.0087485616813e-02
-8.6549684173747e-03
 1.1137743806160e-02
-9.7827315191008e-03
 5.5220578877737e-03
-4.3597179989803e-03
-6.8914600588610e-18
-1.8671994289274e-17
 3.2829302969682e-17
 1.9971243598732e-02
-1.5157970595496e-02
 9.9221960142764e-03
-6.5100288538815e-03
 1.0950846659341e-02
-7.6672432422278e-03
 5.4250876506643e-03
-3.2850006935661e-03
-3.2575193085506e-17
 5.9796290911417e-18
 8.2009729953161e-18
 1.9675397863551e-02
-1.0811414886803e-02
 9.7809085879455e-03
-4.3086233624194e-03
 1.0765041363925e-02
-5.4827300810310e-03
 5.3365671657133e-03
-2.1779309848995e-03
-4.8704394467122e-17
 1.0992793589466e-17
 6.7085009422541e-18
 1.9445099044205e-02
-6.3571215982705e-03
 9.6884194742284e-03
-2.0536919304277e-03
 1.0612996508996e-02
-3.2291369332800e-03
 5.2721313524273e-03
-1.0378920263321e-03
 9.8848744944577e-18
 1.5851374574917e-17
-2.0582900618280e-19
 1.9338294540930e-02
-1.8094302055260e-03
 9.6727773979435e-03
 2.4210859146478e-04
 1.0527263506049e-02
-9.1370259265489e-04
 5.2491471881666e-03
 1.2951800428596e-04
-3.4940532590713e-17
 7.5758626802425e-18
 2.6150024664108e-17
 1.9414161400277e-02
 2.7958241324342e-03
 9.7626312741674e-03
 2.5546278786806e-03
 1.0541242558304e-02
 1.4453698834362e-03
 5.2852331400857e-03
 1.3121505106710e-03
-1.0992793589466e-17
-1.6141059842878e-17
 1.4438523618897e-17
 1.9728980869772e-02
 7.3983878865675e-03
 9.9845296722094e-03
 4.8471191344106e-03
 1.0687360596137e-02
 3.8164733536412e-03
 5.3964939173028e-03
 2.4909152644881e-03
-1.0923336887792e-17
-3.9370091388380e-18
 6.2765141391544e-18
 2.0331180310933e-02
 1.1911343446656e-02
 1.0359742603912e-02
 7.0686593689970e-03
 1.0994812273680e-02
 6.1533621468861e-03
 5.5966163874928e-03
 3.6387575096768e-03
 5.6581800876587e-18
-9.7713720795256e-18
 1.5246593050577e-17
 2.1256794399761e-02
 1.6219783847347e-02
 1.0903016274167e-02
 9.1548313465068e-03
 1.1485315097218e-02
 8.3937863527748e-03
 5.8938764760370e-03
 4.7212862719022e-03
-3.8780556457091e-17
-1.1506095555502e-17
 2.2341341016779e-17
 2.2523227520907e-02
 2.0178060449553e-02
 1.1616328303457e-02
 1.1023496974190e-02
 1.2173772371796e-02
 1.0459189183312e-02
 6.2946204465817e-03
 5.6935807947269e-03
-3.7343988578548e-17
-8.6736173798840e-18
-3.8116482626443e-18
 2.4127698081131e-02
 2.3610504226930e-02
 1.2495840609814e-02
 1.2580443390164e-02
 1.3057234226835e-02
 1.2251221666485e-02
 6.7896129930318e-03
 6.5047387172967e-03
-5.2312754822426e-18
 3.0086610286473e-17
 2.0769247866675e-18
 2.6032102004251e-02
 2.6302816754352e-02
 1.3504930400316e-02
 1.3705290064252e-02
 1.4128510870137e-02
 1.3654732251093e-02
 7.3800587837667e-03
 7.0875728094677e-03
 3.5434776315436e-17
 5.3993268189778e-17
-5.4069501155031e-17
 2.8173442386944e-02
 2.8016131980152e-02
 1.4625146420796e-02
 1.4276291385784e-02
 1.5335857131276e-02
 1.4527407615933e-02
 8.0082411830489e-03
 7.3763040389707e-03
 2.4004913725187e-17
-1.0543866127421e-17
-4.9127910940749e-20
 3.0412649671241e-02
 2.8465951794466e-02
 1.5708450085501e-02
 1.4127564478485e-02
 1.6652576370745e-02
 1.4726519696964e-02
 8.7216250665421e-03
 7.2885120886070e-03
 3.7587934067357e-17
 2.2768245622196e-18
-2.7389657382415e-17
 3.2628137723037e-02
 2.7444960276746e-02
 1.6856463599380e-02
 1.3200311780565e-02
 1.7935594285802e-02
 1.4105729773091e-02
 9.2672118027366e-03
 6.7880306677637e-03
-3.2229603643026e-17
 1.0842021724855e-18
 5.8957728293636e-17
 3.4621499655849e-02
 2.4629213789552e-02
 1.7803469661462e-02
 1.1402320281917e-02
 1.9198293402440e-02
 1.2606910078171e-02
 9.9550273883366e-03
 5.6919876831998e-03
 6.6204095157396e-18
 2.5614276324970e-18
 1.5870009299757e-17
 3.6510801571708e-02
 1.9612423532280e-02
 1.9224718392460e-02
 7.8883232718852e-03
 2.0349868440405e-02
 9.6347627550237e-03
 1.0289733057746e-02
 3.6783221130818e-03
 4.7569370317802e-17
 3.5453411040276e-17
 7.6029677345546e-18
 3.6871518542433e-02
 4.6402630730853e-03
 1.5852338717426e-02
-2.8247135367110e-03
 1.8855762972549e-02
 1.0312634935836e-02
 7.3615362132244e-03
 7.9299458681703e-03
-1.2143064331838e-17
 8.0230960763927e-18
 1.1600963245595e-17
 2.1632506543213e-02
 3.0254512328298e-04
 9.6354636599187e-03
 4.0006780319146e-03
 3.7676025493871e-18
 5.1391182975813e-17
 3.8475624596079e-17
-6.2954002866333e-03
-2.3125344261432e-03
-8.1848463073078e-03
-2.5162685620970e-03
-1.6820715651846e-03
-1.0828635459621e-03
-3.1795485566786e-03
-1.0634378546239e-03
-8.1315162936413e-20
 1.2630955309456e-17
-1.1858461261560e-17
-1.3769882579838e-02
-6.7567413952956e-03
-5.3347119785352e-03
-4.4227528595755e-03
-5.2624135860171e-03
-2.1006457124315e-03
-1.4533980027149e-03
-6.7242028781678e-04
-4.9114358413593e-17
-4.3368086899420e-19
 7.0744191754679e-18
-1.6159768128370e-03
-1.7070722286372e-02
 2.6237661886932e-03
-2.1932066335381e-02
-1.9711858567390e-03
-4.3824967388506e-03
-1.8401828735879e-03
-7.1764329913684e-03
 7.6327832942979e-17
 1.7347234759768e-18
 6.8955258170078e-17
 1.2886349728143e-02
-5.1705229759770e-02
 9.6344734922504e-03
-2.5331869511859e-02
 5.6126589244343e-03
-2.0414539103218e-02
 6.4483675656675e-03
-1.3643599708733e-02
-9.8987658347927e-17
 5.8330076879720e-17
 6.8413157083835e-17
 2.3262345448419e-02
-5.6145927930373e-02
 1.2120244446273e-02
-2.2302158891705e-02
 1.3406269519464e-02
-2.9101688768942e-02
 9.3335328293591e-03
-9.8794843376311e-03
-3.3501847129802e-17
 4.9439619065339e-17
-5.6378512969246e-18
 2.6235723529783e-02
-3.9075384741910e-02
 1.3053884732143e-02
-2.1734481772938e-02
 1.3436936703243e-02
-2.0880866944280e-02
 4.6986527773001e-03
-1.1395659601874e-02
 4.4940180049524e-17
 1.7347234759768e-17
 1.1600963245595e-17
 2.3950251391909e-02
-3.9212036092629e-02
 1.2650238594521e-02
-1.8386851511366e-02
 1.2218753599314e-02
-1.8522885352421e-02
 6.8207348725835e-03
-9.1482202988828e-03
 2.1141942363467e-17
-6.8792627844205e-17
-3.6862873864507e-17
 2.4679557183013e-02
-3.6244104656760e-02
 1.2542653134227e-02
-1.6583248478639e-02
 1.3889692544296e-02
-1.8051987704821e-02
 7.1137701128805e-03
-8.0400247951644e-03
-1.6805133673525e-18
 1.8973538018496e-17
-3.6103932343767e-17
 2.5222854506339e-02
-3.1771379569875e-02
 1.2535773577564e-02
-1.4921901758839e-02
 1.3981178319341e-02
-1.6122448006882e-02
 6.8612100337049e-03
-7.4131637666852e-03
 3.2471855065941e-17
-3.9492064132784e-17
-9.4867690092482e-19
 2.5055428458082e-02
-2.7774806941110e-02
 1.2436948189539e-02
-1.2974557717598e-02
 1.3572374099397e-02
-1.4021868802244e-02
 6.7790127534693e-03
-6.5180462849668e-03
 7.0939009332548e-17
 4.8003051186796e-17
-7.1072840538214e-17
 2.4692299445576e-02
-2.3821968416591e-02
 1.2269906925216e-02
-1.0943226756808e-02
 1.3311855806649e-02
-1.2009910508573e-02
 6.6674809153966e-03
-5.5327745006508e-03
 4.3219009100703e-17
-2.3317122972016e-17
-1.5930995671959e-17
 2.4253459499285e-02
-1.9761838639553e-02
 1.2051240039101e-02
-8.8562280922133e-03
 1.3078206223270e-02
-9.9857778168424e-03
 6.5257460705510e-03
-4.4946563585313e-03
 2.5600723797814e-17
 2.8233302197880e-17
 1.0198276684942e-17
 2.3779817180547e-02
-1.5549974004742e-02
 1.1809325198003e-02
-6.7027679406237e-03
 1.2823152292583e-02
-7.8913190542860e-03
 6.3699216954376e-03
-3.4129239420224e-03
 1.7875783318855e-17
 8.5516446354794e-18
 6.2002811739015e-19
 2.3312031902393e-02
-1.1170623107489e-02
 1.1577968928732e-02
-4.4687836665958e-03
 1.2553944628621e-02
-5.7000688310911e-03
 6.2192569682367e-03
-2.2853092135193e-03
-2.1826344984849e-17
-3.1011570264874e-17
-2.5224641169233e-17
 2.2907217669086e-02
-6.6187811666794e-03
 1.1394448096796e-02
-2.1496450348195e-03
 1.2304168512003e-02
-3.4021457247757e-03
 6.0947023444697e-03
-1.1089596603284e-03
-5.9377009602526e-18
 6.1325185381211e-18
 5.5590772328300e-17
 2.2637334468669e-02
-1.9056115158662e-03
 1.1298599424331e-02
 2.4536968305711e-04
 1.2118403879811e-02
-1.0009487634370e-03
 6.0186215822284e-03
 1.1303083124403e-04
-6.9270354426457e-18
-5.4887734982079e-18
 2.6098779170799e-17
 2.2581917266791e-02
 2.9333469056780e-03
 1.1330652646226e-02
 2.6914002450553e-03
 1.2044542809917e-02
 1.4854723860918e-03
 6.0140907240793e-03
 1.3690505352741e-03
-1.1805309944120e-17
 1.7157499379583e-17
-1.8080977050327e-18
 2.2819973623783e-02
 7.8330788585248e-03
 1.1528467696575e-02
 5.1477799680129e-03
 1.2128956076651e-02
 4.0221749871972e-03
 6.1026187100168e-03
 2.6386519360244e-03
 1.1258761934904e-17
-1.2563192673676e-17
-1.6359594343270e-17
 2.3421819902182e-02
 1.2696056064485e-02
 1.1923390645945e-02
 7.5562161663356e-03
 1.2414086622073e-02
 6.5566957299534e-03
 6.3034571819713e-03
 3.8909859807177e-03
-4.0860869375547e-18
 5.5971937154564e-18
 1.6778028619213e-17
 2.4443968113999e-02
 1.7391619898746e-02
 1.2540036465801e-02
 9.8437362746608e-03
 1.2931775775826e-02
 9.0175483663337e-03
 6.6288157411662e-03
 5.0873428143774e-03
-4.7433845046241e-18
 2.3364556817063e-17
 4.8829755343316e-17
 2.5920129745138e-02
 2.1752423523537e-02
 1.3386716190693e-02
 1.1914669747341e-02
 1.3708737245736e-02
 1.1314730726548e-02
 7.0911614123190e-03
 6.1744819903993e-03
-4.4045713257224e-18
-1.4745149545803e-17
 4.4249001164565e-18
 2.7863855038483e-02
 2.5576017255254e-02
 1.4468500985753e-02
 1.3662072610259e-02
 1.4745253561443e-02
 1.3333760994950e-02
 7.6808198625429e-03
 7.0953134915044e-03
-4.6295432765131e-17
-1.3931997916439e-17
-2.1582399496040e-17
 3.0240533684264e-02
 2.8609530028724e-02
 1.5743884453867e-02
 1.4939370426305e-02
 1.6048558857506e-02
 1.4940496562414e-02
 8.4101964404795e-03
 7.7656669614328e-03
-4.9551427414377e-17
 3.8814437774981e-17
-5.0852470021359e-17
 3.2995207190098e-02
 3.0572434559602e-02
 1.7202264024791e-02
 1.5607130792489e-02
 1.7552484590965e-02
 1.5963651807498e-02
 9.2054821811445e-03
 8.1137783826080e-03
-8.4923523291716e-17
 3.6917083973131e-17
-2.9700363262525e-17
 3.5954732549911e-02
 3.1128705772673e-02
 1.8658594972747e-02
 1.5462780420535e-02
 1.9257352950262e-02
 1.6237120499660e-02
 1.0149551938724e-02
 8.0311584545996e-03
-1.9779913384282e-17
 1.0191500421364e-17
-1.4609624274242e-17
 3.9015144798235e-02
 3.0040961768009e-02
 2.0279510521336e-02
 1.4458194535962e-02
 2.0945579021429e-02
 1.5579686739860e-02
 1.0881899670565e-02
 7.4860593987296e-03
 5.1557201433475e-17
 1.5287250632046e-17
-8.5059048563277e-18
 4.1847123363098e-02
 2.6830813450978e-02
 2.1590871321434e-02
 1.2351525857213e-02
 2.2670293201600e-02
 1.3880155906832e-02
 1.1877593684986e-02
 6.2085717641054e-03
-2.3364556817063e-17
-3.9830877311686e-17
 6.0715321659188e-18
 4.4363464948276e-02
 2.0942121008982e-02
 2.3189410706668e-02
 8.3002616706267e-03
 2.4124100291345e-02
 1.0236438344479e-02
 1.1991465494852e-02
 3.6434657529370e-03
 2.2619167823479e-17
 2.4801124695606e-17
 1.8201043970600e-17
 4.4707112847384e-02
 3.3329543823548e-03
 1.9977374682838e-02
-4.4614311571820e-03
 2.1804144402608e-02
 1.0958921219938e-02
 8.9691784498243e-03
 9.6315777364779e-03
-9.1723503792274e-17
-8.6736173798840e-18
-2.1684043449710e-17
 2.9382877485943e-02
 1.0561493882477e-04
 1.2838071252901e-02
 4.2055795355367e-03
-6.1799523831674e-18
 8.0881482067419e-17
 3.3827107781548e-17
-9.7981522805490e-04
-1.7513447284898e-03
-3.2943136755761e-03
-1.9565024863724e-03
 6.1539595023419e-04
-6.2030819557757e-04
-4.5465106644826e-04
-7.6375619353541e-04
 7.3725747729014e-18
 5.4210108624275e-20
-2.1684043449710e-18
-7.6843062783176e-03
-2.7087984791976e-03
-3.2478293714768e-03
-1.2630255140067e-04
-2.2311084207374e-03
-1.1174314922366e-03
-1.1272777694984e-03
-1.5030380084369e-04
-5.6920614055489e-18
-2.2334564753201e-17
-2.0220370516855e-17
-2.8637968444780e-03
-6.3206838155852e-03
 1.4335327495907e-03
-7.9430452488935e-03
 4.9963973066269e-04
-4.3505526823662e-04
 2.0307319680644e-03
-2.6558477866168e-04
 1.7347234759768e-17
 1.1492543028346e-17
 1.0950441942104e-17
 1.4022883299253e-02
-2.1036600908269e-02
 9.7866959788728e-03
-2.6388113120134e-02
 3.4665322975798e-03
-5.7361766696920e-03
-8.1386980101073e-04
-1.2207612150505e-02
 5.6378512969246e-18
-1.1275702593849e-17
 1.2576745200832e-17
 2.3766082152442e-02
-5.7467083323504e-02
 1.5185789838548e-02
-1.8867372627085e-02
 1.1209692003348e-02
-2.4610789910589e-02
 1.1241114168179e-02
-1.1100710368403e-02
 5.2475385148298e-17
 5.1608023410310e-17
 3.3935527998796e-17
 2.9880233324619e-02
-4.8604412694683e-02
 1.4411425307624e-02
-1.9960533980111e-02
 1.9157661868661e-02
-2.6570259577807e-02
 1.0349211070363e-02
-7.9763561468198e-03
 8.6736173798840e-19
-2.8622937353617e-17
 1.3010426069826e-17
 3.1863862667070e-02
-3.4230585466144e-02
 1.5116888974287e-02
-2.0434687722769e-02
 1.6631966781887e-02
-1.8380503512642e-02
 6.2048403266957e-03
-1.0995195898261e-02
 1.5504091066543e-17
 1.6263032587283e-17
-3.1116602350334e-17
 2.9280029921651e-02
-3.4795837275844e-02
 1.5079659973822e-02
-1.6826405932591e-02
 1.4166317615974e-02
-1.6462588562373e-02
 7.8449507763025e-03
-8.7633741632658e-03
 3.3827107781548e-17
-1.5395670849294e-17
-1.8756697583999e-17
 2.8955090453543e-02
-3.2433835000134e-02
 1.4853179924083e-02
-1.4707874313842e-02
 1.5624914941668e-02
-1.6033217641979e-02
 8.1144698830826e-03
-7.1955599467088e-03
 2.5587171270658e-17
 4.6214117602195e-17
 1.9136168344369e-17
 2.9115312818092e-02
-2.8351103429493e-02
 1.4623430584303e-02
-1.3025293686098e-02
 1.6044462656396e-02
-1.4407301066305e-02
 7.8257837579372e-03
-6.4479959142574e-03
 2.2497195079074e-18
-1.1763593571468e-17
-5.2299202295270e-17
 2.8837572557876e-02
-2.4335019171623e-02
 1.4324080300259e-02
-1.1159726807591e-02
 1.5664822288500e-02
-1.2404951354442e-02
 7.6539966190694e-03
-5.5903811574751e-03
-2.0220370516855e-17
 2.5749801596531e-17
-1.3186608922855e-17
 2.8305734105665e-02
-2.0295823787386e-02
 1.3990631345964e-02
-9.1501332635175e-03
 1.5219376223285e-02
-1.0361920705266e-02
 7.4792186445762e-03
-4.6313239967191e-03
-1.9000643072808e-17
 4.6620693416877e-18
 1.7652166620780e-17
 2.7636053922720e-02
-1.6118109321120e-02
 1.3634665742881e-02
-7.0149813188891e-03
 1.4773260065738e-02
-8.2626987960044e-03
 7.2772960515977e-03
-3.5859495134076e-03
 5.4210108624275e-20
 1.4923026464726e-17
 9.1750608846586e-18
 2.6914579851052e-02
-1.1729119163107e-02
 1.3280113665402e-02
-4.7532485262991e-03
 1.4328357837314e-02
-6.0570445693475e-03
 7.0620584979224e-03
-2.4566928110374e-03
-1.0574359313523e-17
-3.3464577680123e-17
 1.8268806606381e-17
 2.6231360565482e-02
-7.0908716774483e-03
 1.2967409872310e-02
-2.3623470407301e-03
 1.3909257287025e-02
-3.7123072649781e-03
 6.8596349743899e-03
-1.2478585128406e-03
 1.9830735361118e-17
 7.7384930061153e-18
 1.8487341106772e-17
 2.5685711029638e-02
-2.1996002823670e-03
 1.2747107306655e-02
 1.5047172121285e-04
 1.3559512953009e-02
-1.2163560404606e-03
 6.7032767886701e-03
 3.5245997523248e-05
 8.9090925392207e-18
 1.2427667402115e-17
 1.1307889845845e-17
 2.5385048892119e-02
 2.9130768328827e-03
 1.2673585683292e-02
 2.7598935852211e-03
 1.3336340372973e-02
 1.4183785655497e-03
 6.6270760029568e-03
 1.3790235950211e-03
 9.9676296134044e-17
 1.2298918394132e-17
-3.1426616409029e-17
 2.5436227095113e-02
 8.1765221327714e-03
 1.2799295297100e-02
 5.4212088869008e-03
 1.3299185964684e-02
 4.1549279921682e-03
 6.6614511524250e-03
 2.7605829308612e-03
-5.5943985067305e-17
-2.4699480741935e-17
 2.7895336051926e-17
 2.5934449956615e-02
 1.3479578822988e-02
 1.3167939619064e-02
 8.0673955258135e-03
 1.3505226117275e-02
 6.9337552286974e-03
 6.8333442320778e-03
 4.1438725557441e-03
-3.1401205420611e-17
 6.5052130349130e-18
 1.4084463846944e-17
 2.6959431702672e-02
 1.8672750685980e-02
 1.3816279609092e-02
 1.0616758867400e-02
 1.3996210448170e-02
 9.6722620846101e-03
 7.1590597640920e-03
 5.4857091721061e-03
-1.5083962724705e-17
 7.0879717026240e-18
-3.6053110366932e-17
 2.8561688930715e-02
 2.3563934686408e-02
 1.4759576891073e-02
 1.2957787832249e-02
 1.4813909846112e-02
 1.2267723553846e-02
 7.6587613259846e-03
 6.7226520778263e-03
 1.6269808850861e-17
-1.2698717945236e-17
 1.6344347750219e-17
 3.0777361591909e-02
 2.7921142905221e-02
 1.6016236757428e-02
 1.4971437067061e-02
 1.5960035358603e-02
 1.4588441656990e-02
 8.3222158386320e-03
 7.7923348912208e-03
-2.0654051385849e-17
-1.7320129705456e-17
-1.1390899074676e-17
 3.3577194806000e-02
 3.1448186927520e-02
 1.7540768885384e-02
 1.6478917866436e-02
 1.7468641815697e-02
 1.6481116823147e-02
 9.1794700069698e-03
 8.5897139572211e-03
-2.3378109344219e-17
 1.9285246143086e-17
-4.1199682554449e-18
 3.6938398551634e-02
 3.3816753654001e-02
 1.9347399009787e-02
 1.7324271114376e-02
 1.9255365506183e-02
 1.7743928608244e-02
 1.0144160359921e-02
 9.0417542578578e-03
 4.3252890418594e-17
-2.7511630126820e-17
-3.6747677383681e-17
 4.0664624276950e-02
 3.4624163505462e-02
 2.1215249994233e-02
 1.7249232574187e-02
 2.1385187972641e-02
 1.8179717589083e-02
 1.1350671312030e-02
 8.9932977322889e-03
 6.6136332521616e-17
 3.7052609244692e-17
 1.8817683956201e-17
 4.4702128019189e-02
 3.3545256458154e-02
 2.3397842207452e-02
 1.6189908318779e-02
 2.3513234643900e-02
 1.7531336007738e-02
 1.2292520781720e-02
 8.4141872272454e-03
-1.1578940388966e-17
 4.5644911461640e-17
 2.9178590967016e-17
 4.8479664410252e-02
 2.9801763998464e-02
 2.5059467787178e-02
 1.3592895595224e-02
 2.5776695131555e-02
 1.5550398637538e-02
 1.3693136580102e-02
 6.8581724777275e-03
 6.9931040125315e-17
-6.5323180892252e-18
-2.2036409155768e-17
 5.1521255398644e-02
 2.2585279568794e-02
 2.6748142225818e-02
 8.7991138438213e-03
 2.7434924255573e-02
 1.0872122470499e-02
 1.3304687515472e-02
 3.5070989924257e-03
 2.5898879395247e-17
-2.0870891820346e-17
-5.7801528320634e-18
 5.1861125994410e-02
 1.4435083737005e-03
 2.3572444346470e-02
-6.7562850438350e-03
 2.3923442082108e-02
 1.1504782183017e-02
 1.0265841140143e-02
 1.2005754344720e-02
 5.2041704279304e-18
-1.9515639104739e-17
 3.6862873864507e-18
 3.5916130669925e-02
 4.6957676060444e-05
 1.5238591058619e-02
 4.4600443065832e-03
 5.1282762758564e-17
 5.2258544713801e-17
 4.6132802439258e-17
 1.8497095860503e-03
-9.3747558894552e-04
 5.6339238854308e-04
-1.3307320410973e-03
 1.1610026958735e-03
-3.2245593642788e-04
 9.4931840901324e-04
-5.2818444673619e-04
 6.5052130349130e-19
-5.9631119486703e-19
 3.3393426912553e-17
-1.9523491450464e-03
-1.8024592023362e-03
-1.3336357011986e-03
-2.8139912972591e-04
 3.2730446019258e-04
-8.0364375044728e-04
-2.6140252478690e-04
-7.5441514274743e-05
-1.7293024651144e-17
 8.4025668367627e-18
 6.1799523831674e-18
-1.3671177421859e-04
 1.9725487462186e-04
 1.2075461066272e-03
 1.3920544553443e-03
 1.5342991351019e-04
 3.6575757271828e-04
 6.2322961344741e-04
 5.8207592184623e-04
 2.5316120727537e-17
-3.4152368433293e-17
-5.4210108624275e-18
 5.2599944630973e-03
-7.9611608516741e-03
 6.4551965489570e-03
-1.3311294824774e-02
 4.2375504676713e-03
 1.1554986841356e-04
 3.9463290353314e-03
-6.3990474293441e-04
 1.1492543028346e-17
 2.0599841277225e-17
 7.2641545556529e-18
 2.7681744566635e-02
-2.6244127118961e-02
 1.6089712006642e-02
-2.7587453872556e-02
 7.7135604652767e-03
-7.7213006127508e-03
 1.0694436575029e-03
-1.6061648193432e-02
 3.3393426912553e-17
 6.9388939039072e-18
-4.6403852982380e-17
 3.3213375366596e-02
-5.6179197205640e-02
 1.9133728780859e-02
-1.5589499534343e-02
 1.4236117848156e-02
-2.6095790962080e-02
 1.2382238578979e-02
-9.9989253139228e-03
 1.0408340855861e-17
 4.7704895589362e-17
 3.7296554733501e-17
 3.3674685699403e-02
-4.5255464360288e-02
 1.6670638935247e-02
-1.7044036605256e-02
 2.2292213027015e-02
-2.5001360109403e-02
 1.2026225296935e-02
-5.3744693949227e-03
 4.0332320816461e-17
-3.8163916471490e-17
-8.7603535536829e-17
 3.6553969989711e-02
-3.1754263458289e-02
 1.7096567839379e-02
-1.8709686747940e-02
 2.0595152583610e-02
-1.7207938705118e-02
 7.9072471416097e-03
-1.0003992686471e-02
 4.8355416892853e-17
 1.9190378452993e-17
 2.9273458657109e-17
 3.4770906222661e-02
-3.0761379551819e-02
 1.7129577377592e-02
-1.5716391925935e-02
 1.6783385075314e-02
-1.4659391831627e-02
 8.7585188100121e-03
-8.7756603307696e-03
 1.5395670849294e-17
-3.2526065174565e-18
 2.5153490401664e-17
 3.3502426073213e-02
-2.8682742003134e-02
 1.6841850822358e-02
-1.3305989896082e-02
 1.7133324658062e-02
-1.4003834557606e-02
 9.1216327288635e-03
-6.7755641293701e-03
 3.6862873864507e-18
-3.9898639947467e-17
-9.4325589006239e-18
 3.2953986211751e-02
-2.5047532512041e-02
 1.6507997610656e-02
-1.1419973971670e-02
 1.7624277488835e-02
-1.2689116891281e-02
 8.8205855234946e-03
-5.7077144994224e-03
-3.5507621148900e-18
 4.4818207305120e-17
 1.5720931501040e-18
 3.2276557610444e-02
-2.1128710559701e-02
 1.6056581503005e-02
-9.4967064769094e-03
 1.7339187682126e-02
-1.0876183577016e-02
 8.4974983856085e-03
-4.7783592537201e-03
 1.1407839733621e-17
-1.5991982044161e-18
-6.1497980102451e-17
 3.1392301254520e-02
-1.7012693321540e-02
 1.5528058398502e-02
-7.4291778201996e-03
 1.6776727304432e-02
-8.8437008816484e-03
 8.1782888826893e-03
-3.7760451757691e-03
 2.8324781756184e-18
 1.3688052427629e-17
 1.3484764520288e-18
 3.0377723890354e-02
-1.2624877067452e-02
 1.4974512393065e-02
-5.1824052161464e-03
 1.6131503465715e-02
-6.6461501806234e-03
 7.8471220645895e-03
-2.6774053194458e-03
 4.1972176602345e-17
-1.1953328951653e-17
 9.5951892264967e-18
 2.9333480939791e-02
-7.9042551923791e-03
 1.4450268031247e-02
-2.7387140785891e-03
 1.5470776143843e-02
-4.2547797565984e-03
 7.5272381766212e-03
-1.4603843782197e-03
-1.0516761073109e-17
 1.9075181972167e-17
 4.2192405168631e-17
 2.8396074455586e-02
-2.8197427024708e-03
 1.4022816227181e-02
-1.0204104205513e-04
 1.4867267461739e-02
-1.6493721102382e-03
 7.2548490292377e-03
-1.2467338670774e-04
-6.9944592652471e-17
 1.1113072267976e-18
-1.8502587699823e-17
 2.7716747153065e-02
 2.6095087487761e-03
 1.3764162305685e-02
 2.6977246235447e-03
 1.4401981022729e-02
 1.1621370113470e-03
 7.0722638111107e-03
 1.3129432287684e-03
 6.7606781718049e-17
-2.2043185419346e-17
 2.6427427954334e-18
 2.7443540831648e-02
 8.3082026934918e-03
 1.3743367549166e-02
 5.6073241217973e-03
 1.4153110564109e-02
 4.1406719908217e-03
 7.0184366095987e-03
 2.8248606927832e-03
 1.4978930639245e-17
 2.5939536976716e-17
-1.4079381649261e-17
 2.7703819708066e-02
 1.4148336600364e-02
 1.4016456927960e-02
 8.5460067873555e-03
 1.4196385390392e-02
 7.2176921919933e-03
 7.1284919292651e-03
 4.3654724065618e-03
-1.1179140837862e-17
-1.1248597539537e-17
-4.1846815726151e-17
 2.8604488807950e-02
 1.9958186226830e-02
 1.4632695165869e-02
 1.1423084444289e-02
 1.4581017139108e-02
 1.0296656602339e-02
 7.4211320997648e-03
 5.8864411594612e-03
 3.4006678766366e-17
 1.3417001884508e-18
-2.1260526976083e-17
 3.0211700139070e-02
 2.5518616502694e-02
 1.5612407067852e-02
 1.4107625894951e-02
 1.5367862440314e-02
 1.3262179011063e-02
 7.9262823691977e-03
 7.3097121270536e-03
-3.5873539382114e-17
-2.4164155919271e-17
 6.4374503991327e-18
 3.2590442702031e-02
 3.0571162989965e-02
 1.6993344991407e-02
 1.6476047152708e-02
 1.6553189796298e-02
 1.5966719601293e-02
 8.6308247227436e-03
 8.5746196245964e-03
 1.6046192152785e-17
-1.2115959277525e-17
-6.3358064454622e-18
 3.5723615568934e-02
 3.4777718300553e-02
 1.8730983835066e-02
 1.8312079110871e-02
 1.8218520918794e-02
 1.8244611170180e-02
 9.5961101096478e-03
 9.5500050477426e-03
-4.7433845046241e-18
 1.8187491443444e-17
-1.0509984809531e-17
 3.9662951279475e-02
 3.7768465333059e-02
 2.0890825065521e-02
 1.9453163098433e-02
 2.0254646273059e-02
 1.9865440495035e-02
 1.0723167795945e-02
 1.0170857469888e-02
 5.7666003049073e-17
-2.9002408113987e-17
 6.4848842441789e-18
 4.4193568738770e-02
 3.9043650765251e-02
 2.3212958578661e-02
 1.9552474563852e-02
 2.2832995450472e-02
 2.0588484420210e-02
 1.2214406744114e-02
 1.0202831161443e-02
-7.6561614036422e-17
 8.8498002329129e-18
-1.6452767967467e-17
 4.9364537676389e-02
 3.8080164631559e-02
 2.6048491889331e-02
 1.8461800661655e-02
 2.5401579829506e-02
 2.0007601303776e-02
 1.3386957361526e-02
 9.6067229297709e-03
 9.6141627645152e-17
 1.6859343782150e-17
 2.2442984970450e-17
 5.4152336126105e-02
 3.3564340297431e-02
 2.7955045069167e-02
 1.5059608735641e-02
 2.8283904205793e-02
 1.7590320828849e-02
 1.5267008765532e-02
 7.5808988632762e-03
 6.9558345628523e-18
-9.8933448239302e-18
-4.5558514101020e-17
 5.7473842469093e-02
 2.4352149872723e-02
 2.9735040378016e-02
 9.3560710578586e-03
 2.9918667117002e-02
 1.1396562322935e-02
 1.4017033784756e-02
 3.1890236005125e-03
-5.5856740673738e-17
 9.1072982488782e-18
 2.3703369995964e-17
 5.8010489640799e-02
-1.4882153780089e-03
 2.6285079464931e-02
-1.0082494169232e-02
 2.4786500327810e-02
 1.1767766979304e-02
 1.1178681555685e-02
 1.5381047200442e-02
 1.0885389811755e-16
-8.6736173798840e-18
-4.7704895589362e-17
 4.0908975886923e-02
 2.6155198680394e-04
 1.6509223202000e-02
 4.8404179363217e-03
 3.8163916471490e-17
-1.0842021724855e-16
-2.8514517136369e-17
 1.7990728200656e-03
-4.3023856528102e-04
 1.7879883975911e-03
-7.6897767783635e-04
 6.6872065946200e-04
-1.0813964617906e-04
 8.7833153407857e-04
-2.3996313120733e-04
-1.9515639104739e-18
-4.7162794503119e-18
 7.5894152073985e-18
 1.9366872025932e-03
-1.2835672062827e-03
 4.1138919171413e-04
-2.2763075688204e-04
 1.5060180276833e-03
-4.6057905934793e-04
 5.5799993008598e-04
-8.8657595703978e-05
-8.9988780316297e-18
-1.3525422101757e-17
 4.8789097761848e-19
 9.3329007184284e-04
 8.5335190344171e-04
 8.5308723874222e-04
 1.0967888807656e-03
 7.0768765240814e-04
 3.3240283619351e-04
 2.9921553855949e-04
 3.9301280998139e-04
 1.0787811616231e-17
-1.0625181290358e-17
-5.6920614055489e-19
 4.0096606885474e-03
 1.4751107948303e-03
 3.1675477964051e-03
 1.4527600881777e-03
 1.3491277375337e-03
 1.1322797724840e-03
 1.1400819012692e-03
 8.8876712216823e-04
-2.4557179206797e-17
 1.3660947373317e-17
-8.3483567281384e-18
 9.1179571695896e-03
-1.0292049332648e-02
 9.3204260308799e-03
-1.6730549373420e-02
 5.6272394034806e-03
-4.0036161178980e-05
 4.7302017706219e-03
-7.5875179725848e-04
-8.0664641632922e-17
 2.4936649967167e-17
-3.4694469519536e-18
 3.6099663902437e-02
-3.0366770488616e-02
 2.0667638732288e-02
-2.7430466965882e-02
 1.0861674911354e-02
-8.5625587917684e-03
 3.9104832787800e-03
-1.7042177719901e-02
 7.0256300777061e-17
-3.0357660829594e-17
 1.4745149545803e-17
 4.2957287527354e-02
-5.0385231951637e-02
 2.2841570146761e-02
-1.5197845989149e-02
 1.6430391144667e-02
-2.4911499463442e-02
 1.1337848598814e-02
-1.2266876701101e-02
 1.4311468676809e-17
-5.7245874707235e-17
 6.4618449480136e-17
 3.6986795393911e-02
-4.3186778234805e-02
 1.8981656748142e-02
-1.4055442083105e-02
 2.2940588062966e-02
-2.4115692814763e-02
 1.3350373576834e-02
-2.7953628175084e-03
-7.8713077722448e-17
 2.4286128663675e-17
-3.9031278209478e-17
 3.9582615280466e-02
-3.0667620128085e-02
 1.8945045747255e-02
-1.6269438303738e-02
 2.4125993579503e-02
-1.7036335801415e-02
 9.8536336248785e-03
-7.2954976982018e-03
 2.8622937353617e-17
 4.8789097761848e-17
 4.7488055154865e-17
 3.9511168052186e-02
-2.7652181714352e-02
 1.9054694939564e-02
-1.4476366134261e-02
 2.0305298511801e-02
-1.3557609028966e-02
 9.6408318130656e-03
-8.4625887210663e-03
 4.1199682554449e-17
-1.5395670849294e-17
 9.3783487919996e-17
 3.8003093243503e-02
-2.5420212289873e-02
 1.8619724876945e-02
-1.2149811241784e-02
 1.9026566664365e-02
-1.2266951061733e-02
 9.9738852464810e-03
-6.7908565199133e-03
 3.5832881800646e-17
-3.2959746043559e-17
 5.2800645800044e-17
 3.6687037934897e-02
-2.2061264913617e-02
 1.8057103030765e-02
-1.0127355641487e-02
 1.8986645419602e-02
-1.1032212735630e-02
 9.7160773216984e-03
-5.3416685908445e-03
-2.4719809532670e-17
-3.7296554733501e-17
 1.6534083130404e-17
 3.5359919080896e-02
-1.8193562555510e-02
 1.7379885872936e-02
-8.0821816134176e-03
 1.8591398325725e-02
-9.4107427634817e-03
 9.2338723787435e-03
-4.2214517483927e-03
-7.1584448438355e-17
 4.6973059122934e-17
 3.8082601308553e-17
 3.3853879321839e-02
-1.3933756222599e-02
 1.6598542601320e-02
-5.8471341693576e-03
 1.7809957697750e-02
-7.4068875228566e-03
 8.7115379143654e-03
-3.0798339868170e-03
-2.5167042928820e-17
 8.3212516738262e-18
-1.0028870095491e-17
 3.2257568363434e-02
-9.1977252256328e-03
 1.5796920938005e-02
-3.3561000364557e-03
 1.6879549057649e-02
-5.0586880246257e-03
 8.1906894074422e-03
-1.8199770834002e-03
 4.9714057740249e-17
 1.0367683274393e-17
 1.0781035352653e-17
 3.0736222248450e-02
-3.9309115988360e-03
 1.5075770722341e-02
-5.8761152041598e-04
 1.5949944111696e-02
-2.3770501772376e-03
 7.7201306232837e-03
-4.1611239177541e-04
 6.7183265244422e-17
-1.7072796084858e-17
 4.3063155038409e-17
 2.9484471553339e-02
 1.8533671653031e-03
 1.4537350210837e-02
 2.4302649361516e-03
 1.5148135938716e-02
 6.2277013403111e-04
 7.3589900861464e-03
 1.1310477728443e-03
 1.1682278408531e-17
-1.5626063810947e-17
 4.9581920600478e-17
 2.8700482969256e-02
 8.0653863931346e-03
 1.4276834656783e-02
 5.6336549941420e-03
 1.4586755077175e-02
 3.8871012978703e-03
 7.1559526997760e-03
 2.7964777764140e-03
 8.6170355790074e-17
 3.2729353081906e-17
-5.7733765684853e-17
 2.8546747647233e-02
 1.4549645725651e-02
 1.4365407827485e-02
 8.9213119128431e-03
 1.4371828597916e-02
 7.3237386140939e-03
 7.1524985278444e-03
 4.5224141236986e-03
-1.1233350946487e-17
-2.7416762436727e-17
 4.5371319819677e-17
 2.9158017579370e-02
 2.1104513770247e-02
 1.4865912883593e-02
 1.2195067360267e-02
 1.4556597070794e-02
 1.0811436454603e-02
 7.3634779171527e-03
 6.2562586065979e-03
-6.0139339255055e-19
-1.0299920638612e-18
-3.4625012817861e-17
 3.0606855401402e-02
 2.7482432625824e-02
 1.5798967500738e-02
 1.5297294463778e-02
 1.5228078125631e-02
 1.4220581128351e-02
 7.8293505959834e-03
 7.9003727191349e-03
 2.8257019120404e-17
 1.9163273398681e-17
 1.1892342579450e-17
 3.2994986945461e-02
 3.3409140259160e-02
 1.7232103248062e-02
 1.8121933280724e-02
 1.6358737961724e-02
 1.7390725644551e-02
 8.5257741854221e-03
 9.4121660760891e-03
-1.3850682753502e-17
-7.3183646642772e-18
-7.5318169669852e-18
 3.6320774819060e-02
 3.8514349225593e-02
 1.9118606622971e-02
 2.0399383051768e-02
 1.8107726380748e-02
 2.0159234617015e-02
 9.5611356421657e-03
 1.0619462098049e-02
-3.1604493327952e-17
-1.4392783839745e-17
 3.3027508679340e-17
 4.0742631394210e-02
 4.2406861995381e-02
 2.1602165159941e-02
 2.1993145363183e-02
 2.0298912433759e-02
 2.2265178862151e-02
 1.0803584221151e-02
 1.1491503289612e-02
 2.7870772096455e-17
-3.5236570605779e-18
 2.8097776926320e-17
 4.6020500741836e-02
 4.4425498802287e-02
 2.4369388857570e-02
 2.2405688871771e-02
 2.3255327178006e-02
 2.3407933346523e-02
 1.2536610399323e-02
 1.1673330963795e-02
 4.8111471404044e-18
 1.4419888894057e-17
-2.1033522146219e-17
 5.2351043060035e-02
 4.3690371673502e-02
 2.7843512608293e-02
 2.1270114206246e-02
 2.6144668952554e-02
 2.2927597924801e-02
 1.3906626598867e-02
 1.1032631946946e-02
-3.2119489359883e-17
-2.9273458657109e-18
-4.3368086899420e-17
 5.7909457843826e-02
 3.8018236826073e-02
 2.9684798108344e-02
 1.6624219946152e-02
 2.9593328705742e-02
 1.9832474415845e-02
 1.6161839703431e-02
 8.2399669626563e-03
-6.7356059965662e-18
-2.0003530082358e-17
-4.5021495212461e-17
 6.1210030142804e-02
 2.6113717522903e-02
 3.1911276430916e-02
 1.0181154012205e-02
 3.0875203048581e-02
 1.1791931673150e-02
 1.3850729737051e-02
 2.7215432584793e-03
-6.7518690291535e-17
 3.1658703436577e-17
 2.5587171270658e-17
 6.2725338391429e-02
-5.9958606975505e-03
 2.7607849733036e-02
-1.4998729697471e-02
 2.3856720558214e-02
 1.1592487029446e-02
 1.1811882041142e-02
 2.0284300123819e-02
 5.4210108624275e-18
-8.6736173798840e-18
-3.2526065174565e-17
 4.4159128935392e-02
 1.2064613534122e-03
 1.6139975023791e-02
 5.5921627325262e-03
 4.4018608202911e-17
-5.1391182975813e-17
-1.7780915628762e-17
 8.2894182368598e-04
-1.1661182552380e-04
 1.1029640030995e-03
-2.9328399566708e-04
 2.0506284471367e-04
-2.4586578195152e-05
 3.0430683245974e-04
-6.3826474058004e-05
 1.1926223897340e-17
 3.4152368433293e-18
-9.2157184661268e-19
 2.4946480588968e-03
-6.2058788017705e-04
 1.2813919649821e-03
-1.6106269967508e-04
 1.0435594545442e-03
-1.3438204464844e-04
 6.6232641055919e-04
-5.1443746990287e-05
 8.1315162936413e-19
-9.6493993351210e-18
 2.9815559743351e-19
 1.7687485162092e-03
 4.3326829092649e-04
 6.2371145174800e-04
 5.7573709948855e-04
 9.4740809223026e-04
 1.1757919275834e-04
 3.3872422106640e-04
 1.8870688449901e-04
 1.1980434005965e-17
 6.6678433607858e-18
-3.5236570605779e-18
 1.9328332842106e-03
 1.7923883848177e-03
 1.3763957417867e-03
 1.3964323093987e-03
 5.5257446470591e-04
 6.2423171216386e-04
 3.2172692926657e-04
 4.1354361392187e-04
-6.0173220572946e-18
-3.2526065174565e-19
 9.7578195523695e-19
 4.6556137873850e-03
 1.7125362275685e-03
 3.3548336786937e-03
 1.3444648822087e-03
 1.1923955695252e-03
 1.2842076770347e-03
 8.5251980676659e-04
 9.7268358346625e-04
 8.3483567281384e-18
-1.9407218887490e-17
-8.1586213479534e-18
 9.6815011659519e-03
-9.8352703055964e-03
 9.8650619887366e-03
-1.5774674760074e-02
 5.0660108162290e-03
 3.6953657972316e-04
 4.2374058156955e-03
 1.9861072282268e-04
-3.3393426912553e-17
 2.7972416050126e-17
-2.8514517136369e-17
 3.7091381654202e-02
-3.1699072134220e-02
 2.2673782727082e-02
-2.6899800451332e-02
 1.2233962355282e-02
-7.1840562569019e-03
 6.8901311854397e-03
-1.3894966630787e-02
 8.0664641632922e-17
 3.8163916471490e-17
 8.2399365108898e-18
 5.3192521900705e-02
-4.3904025449372e-02
 2.7140252270683e-02
-1.6743610272926e-02
 1.9192931250203e-02
-2.1660905033038e-02
 1.0709114407959e-02
-1.7215697607714e-02
-1.0560129160009e-16
-5.8763757748714e-17
 2.7755575615629e-17
 4.3338623399372e-02
-4.0490598564645e-02
 2.2260269372764e-02
-1.2106007379060e-02
 2.3050892398032e-02
-2.3457643494933e-02
 1.3692215011439e-02
-3.7746341280709e-03
-2.7972416050126e-17
-3.6429192995513e-17
-3.5995512126519e-17
 4.1641006135549e-02
-3.0035607634080e-02
 2.0682153230598e-02
-1.3480107589345e-02
 2.5797093067354e-02
-1.7414800185335e-02
 1.1750691948585e-02
-3.0977205285367e-03
 1.1926223897340e-17
-6.0715321659188e-18
-1.3010426069826e-18
 4.2627441773895e-02
-2.5471142774592e-02
 2.0695757512448e-02
-1.3032823078021e-02
 2.3932167045245e-02
-1.3384765928023e-02
 1.0573231513313e-02
-6.2919068753260e-03
-9.7578195523695e-19
-1.7130394325271e-17
 4.2880195921802e-17
 4.1754381884708e-02
-2.2954673559589e-02
 2.0191875551324e-02
-1.1165879409191e-02
 2.1576730258886e-02
-1.1459984683405e-02
 1.0478141477208e-02
-6.6257143757298e-03
 3.3556057238426e-17
 2.9815559743351e-18
-4.6078592330634e-18
 3.9829705084678e-02
-1.9775642824278e-02
 1.9256487294722e-02
-9.0992510881733e-03
 2.0331731870385e-02
-9.9424545714530e-03
 1.0231842705579e-02
-5.3769418334753e-03
-1.4446993948369e-17
 2.0491421059976e-17
 1.4148838350936e-17
 3.7591622473990e-02
-1.5828915315424e-02
 1.8146993842638e-02
-6.8895756269853e-03
 1.9362206288576e-02
-8.2262373613720e-03
 9.6061185626297e-03
-3.9943962000848e-03
-1.1972302489671e-16
-1.3715157481942e-17
-2.0870891820346e-17
 3.5179793034040e-02
-1.1178203673644e-02
 1.6963829727002e-02
-4.3564809269583e-03
 1.8147649612899e-02
-6.0868980673590e-03
 8.8426842661988e-03
-2.5880046362232e-03
 4.9995272678738e-17
 1.7347234759768e-17
 2.6644268388831e-17
 3.2776607843466e-02
-5.7618782181592e-03
 1.5829745905084e-02
-1.4349837139775e-03
 1.6792807179968e-02
-3.4374283803338e-03
 8.0934076204215e-03
-1.0406699827712e-03
-3.2986851097871e-17
-5.0957502106819e-18
 4.2012834183813e-18
 3.0653177929480e-02
 4.1438469049382e-04
 1.4891622209694e-02
 1.8460153665956e-03
 1.5521716308967e-02
-2.6941001805980e-04
 7.4715330442672e-03
 6.8716951487602e-04
 2.0003530082358e-17
 9.4596639549360e-18
-4.5116362902553e-17
 2.9092376240264e-02
 7.2300745220844e-03
 1.4282383898706e-02
 5.4025719458082e-03
 1.4515793455530e-02
 3.3183922861486e-03
 7.0476042058516e-03
 2.5714605268377e-03
 3.3881317890172e-19
-3.2526065174565e-17
 6.1935049103234e-17
 2.8292546453031e-02
 1.4481687439066e-02
 1.4087843877499e-02
 9.1019888953952e-03
 1.3929208486900e-02
 7.1724752462892e-03
 6.8698907945475e-03
 4.5370200479056e-03
-4.6051487276322e-17
 9.7036094437453e-18
 8.3957905731846e-18
 2.8409635287822e-02
 2.1920334388746e-02
 1.4381693061440e-02
 1.2846054266106e-02
 1.3807055469840e-02
 1.1124622221299e-02
 6.9409996480658e-03
 6.5277880379853e-03
-2.3459424507155e-17
-1.5504091066543e-17
 2.8135046375999e-17
 2.9498304980919e-02
 2.9266157140533e-02
 1.5168178034315e-02
 1.6426751285678e-02
 1.4265008624648e-02
 1.5028224570514e-02
 7.3112689638251e-03
 8.4241978189823e-03
-2.3242584072658e-18
-1.3498317047444e-17
-2.8992243718620e-17
 3.1684430624381e-02
 3.6247102607952e-02
 1.6553118119141e-02
 1.9817304037531e-02
 1.5202110633822e-02
 1.8707595506198e-02
 7.9199224374449e-03
 1.0231551932485e-02
 5.0727109145166e-17
 2.8460307027744e-17
 1.7309118277142e-17
 3.4957034700561e-02
 4.2464999831246e-02
 1.8447349921277e-02
 2.2615668212296e-02
 1.6890748973992e-02
 2.2026440624451e-02
 8.9423929729549e-03
 1.1699391188884e-02
-1.4501204056994e-17
 2.6481638062958e-17
 6.0308745844506e-18
 3.9557869838539e-02
 4.7541389802802e-02
 2.1110959285150e-02
 2.4847430050912e-02
 1.8958114747406e-02
 2.4659727195543e-02
 1.0127871976479e-02
 1.2914290506785e-02
 3.6998399136068e-17
-1.0299920638612e-18
-4.5848199368981e-17
 4.5206858203894e-02
 5.0509945713202e-02
 2.4073485480335e-02
 2.5628948229070e-02
 2.1970079455365e-02
 2.6270580161392e-02
 1.1902244130357e-02
 1.3238354899054e-02
 5.3678171933400e-17
 3.5697356529085e-17
 3.4223519200863e-17
 5.2061339379598e-02
 5.0071337342960e-02
 2.7787160947351e-02
 2.4387810472514e-02
 2.4720747285995e-02
 2.5803659798195e-02
 1.3112398796855e-02
 1.2371671737119e-02
-2.8785567679490e-17
-3.5995512126519e-17
 3.3989738107421e-17
 5.7449254839017e-02
 4.2831819793948e-02
 2.9108141626819e-02
 1.8255205610018e-02
 2.8218300190289e-02
 2.1999203373035e-02
 1.5462782007880e-02
 8.7871560299888e-03
-3.1279232676207e-17
 7.0473141211558e-18
-2.7430314963883e-17
 6.1075122501667e-02
 2.8398231037002e-02
 3.3034522281532e-02
 1.2235387929167e-02
 2.9267019737972e-02
 1.2613803073330e-02
 1.2648493731817e-02
 2.6202161675215e-03
-4.0115480381964e-18
-4.6620693416877e-17
 1.0299920638612e-17
 6.5710149016329e-02
-1.2471701250526e-02
 2.6901912782012e-02
-2.2324649272193e-02
 2.0884484315786e-02
 1.1003001939386e-02
 1.2743254295014e-02
 2.7368805191735e-02
 1.9081958235745e-17
-8.6736173798840e-18
-3.2309224740068e-17
 4.6296752396252e-02
 3.9842976412103e-03
 1.3293466090460e-02
 7.4542821440886e-03
 9.5843472047719e-17
-1.9081958235745e-17
 4.0766001685455e-17
 2.2488207312410e-04
-2.8321706127876e-05
 3.3841284352310e-04
-8.0455330788709e-05
 3.6681984063591e-05
-5.5364467328456e-06
 5.1829514024604e-05
-1.2537275754454e-05
-1.3173056395699e-17
 2.9192143494172e-17
 4.9331198848090e-18
 1.2703994970433e-03
-1.7729657536414e-04
 8.8994006663112e-04
-1.0322480117964e-04
 3.4544066541287e-04
-4.4423491483148e-05
 2.9289620652051e-04
-3.5718725929002e-05
 4.2825985813177e-18
-7.1557343384043e-18
-1.9786689647860e-18
 1.5384654956581e-03
 8.9531710230517e-05
 6.3812751773651e-04
 2.2373165388245e-04
 6.0233358785666e-04
-7.8766058102531e-06
 2.9584999466259e-04
 4.8624440864842e-05
-4.4452289071906e-18
 6.6271857793176e-18
-4.4045713257224e-19
 1.0078892096255e-03
 7.5648036887799e-04
 4.0263956388253e-04
 5.4930066881553e-04
 4.1273035727585e-04
 1.8765538001442e-04
 1.4053676859760e-04
 1.3391350291414e-04
-5.3939058081154e-18
 2.9273458657109e-18
-7.9688859677685e-18
 1.4571466658371e-03
 1.6243554226323e-03
 1.0258350341097e-03
 1.2361661805329e-03
 2.5073169071277e-04
 4.5727349020863e-04
 1.9387729630971e-04
 2.8424486757750e-04
-4.7704895589362e-18
 8.6736173798840e-19
-6.5052130349130e-19
 3.7328164776076e-03
 2.0788789640127e-03
 2.7402083206050e-03
 1.8170814806737e-03
 6.4994587962275e-04
 1.2218252223519e-03
 4.6650726190833e-04
 9.3211664523274e-04
 5.9631119486703e-18
-4.7704895589362e-18
 4.0386530925085e-18
 8.2718101644996e-03
-4.9381648482525e-03
 8.2213912762712e-03
-9.8694504443344e-03
 3.1200982802488e-03
 1.5770584221624e-03
 2.4199918671748e-03
 1.6077895553579e-03
-3.2526065174565e-18
 8.8904578143811e-18
 2.1575623232462e-17
 2.9357220688446e-02
-2.7575091245717e-02
 2.0752193651354e-02
-2.5067795458895e-02
 1.0114147861231e-02
-3.2687812969829e-03
 7.2892952450907e-03
-6.5559996120115e-03
 3.9031278209478e-17
 3.8163916471490e-17
-1.3010426069826e-17
 5.8106152309030e-02
-3.9839142722545e-02
 3.0541148944346e-02
-1.9694941067741e-02
 2.0020914070955e-02
-1.6095407881091e-02
 1.1755786193312e-02
-1.8800819566295e-02
 4.5102810375397e-17
 6.7654215563096e-17
 1.6046192152785e-17
 5.5883497494598e-02
-3.7952796509213e-02
 2.7837552646806e-02
-1.2599400628062e-02
 2.5982306297522e-02
-2.2795393222902e-02
 1.4355097453865e-02
-1.1946864092721e-02
 9.9746599868666e-18
-5.3559587320784e-17
-2.8406096919120e-17
 4.7174539373124e-02
-2.9636902564942e-02
 2.3566156485476e-02
-1.1141129179094e-02
 2.7114685644221e-02
-1.8882381823540e-02
 1.3565560974776e-02
-3.0764347189560e-03
 4.1633363423443e-17
-1.0408340855861e-17
 3.6862873864507e-17
 4.4358733009169e-02
-2.4107973481321e-02
 2.1917971242971e-02
-1.1321620230206e-02
 2.6135842186534e-02
-1.3917469761121e-02
 1.1818418112760e-02
-2.0650473273207e-03
 3.9681799512969e-17
 1.3010426069826e-17
 4.9439619065339e-17
 4.3330187726312e-02
-2.1258749538674e-02
 2.1007622517391e-02
-1.0482330205207e-02
 2.3867370326485e-02
-1.1336111959718e-02
 1.0596585436993e-02
-4.0532989604003e-03
-2.5587171270658e-17
 3.0791341698588e-17
-1.5612511283791e-17
 4.1068842543964e-02
-1.8346829237956e-02
 1.9671370778751e-02
-8.5315517640652e-03
 2.1313517084423e-02
-9.8005600822528e-03
 9.8554581905716e-03
-4.5452040085507e-03
-4.1416522988946e-17
-1.3389896830196e-17
 1.0028870095491e-18
 3.7865325680130e-02
-1.4170185908334e-02
 1.7994150216921e-02
-5.9741879104536e-03
 1.9216529042865e-02
-7.9314570851192e-03
 8.9980441184281e-03
-3.8526983082079e-03
 3.6266562669640e-17
-2.9815559743351e-19
-3.4531839193663e-17
 3.4309143722268e-02
-8.7289124582384e-03
 1.6258420277207e-02
-2.8763963991309e-03
 1.7142636456640e-02
-5.2543628261841e-03
 8.0606469095130e-03
-2.2526992552230e-03
-2.0084845245294e-17
-2.4015078120554e-17
 5.7354294924483e-17
 3.0958830700030e-02
-2.1274097875619e-03
 1.4741119927338e-02
 7.4327897777948e-04
 1.5273658699357e-02
-1.8257421340380e-03
 7.1625042770904e-03
-2.7374303589056e-04
-5.4697999601894e-17
-2.4475864043860e-17
 1.6235927532970e-17
 2.8324091552356e-02
 5.4159010325634e-03
 1.3638400648716e-02
 4.7352293656786e-03
 1.3693093465861e-02
 2.2020916032961e-03
 6.4982836930625e-03
 1.9224345704316e-03
-5.4128793461339e-17
 1.0055975149803e-17
 1.0598076236046e-17
 2.6623468392025e-02
 1.3598042243657e-02
 1.3038271525756e-02
 8.9196269957483e-03
 1.2616286414698e-02
 6.5385307371226e-03
 6.1071573990858e-03
 4.2208677593152e-03
-5.8614679949998e-17
-3.4613154356600e-17
 4.2920853503270e-17
 2.6015147979692e-02
 2.2082009944839e-02
 1.3016361106264e-02
 1.3231129704877e-02
 1.2073272719704e-02
 1.0969245623567e-02
 5.9889216588544e-03
 6.4992842952520e-03
 9.1344033031904e-18
 3.2797115717687e-17
-5.2177229550865e-17
 2.6506114454477e-02
 3.0530967275880e-02
 1.3502343879095e-02
 1.7286425465159e-02
 1.2166986993805e-02
 1.5347278105502e-02
 6.1900413701324e-03
 8.6678884609839e-03
 2.2463313761184e-18
-7.8604657505199e-19
 6.0739038581711e-17
 2.8125176586798e-02
 3.8704525396476e-02
 1.4658045221335e-02
 2.1385957128444e-02
 1.2659296841349e-02
 1.9450349783422e-02
 6.5595819144804e-03
 1.0774624958572e-02
-1.3620289791849e-17
-1.5504091066543e-17
-1.9109063290057e-17
 3.0876078457457e-02
 4.6118778890218e-02
 1.6210490721223e-02
 2.4595177448504e-02
 1.3947758259576e-02
 2.3257151026485e-02
 7.3726835755750e-03
 1.2445880302412e-02
 2.5261910618912e-17
-3.5019730171282e-17
 1.0412576020597e-17
 3.4801575352898e-02
 5.2493100608462e-02
 1.8613340281272e-02
 2.7702369528129e-02
 1.5247025263548e-02
 2.6243902998226e-02
 8.0658080507625e-03
 1.3965695612114e-02
 2.6562953225895e-18
 3.5344990823027e-17
-2.1602728286774e-17
 3.9627414580261e-02
 5.6305675691608e-02
 2.0890397347031e-02
 2.8501148981783e-02
 1.7512469358612e-02
 2.8271669503305e-02
 9.3838050814750e-03
 1.4220582842696e-02
-3.5060387752750e-17
-2.1385887852277e-17
 1.5246593050577e-17
 4.4936514530672e-02
 5.6335284942565e-02
 2.4052381817626e-02
 2.7559960435482e-02
 1.9219418457574e-02
 2.7738640641343e-02
 9.7707386062140e-03
 1.3111836597151e-02
-4.3893247326718e-17
-2.0491421059976e-17
-4.1470733097571e-17
 4.9423798105218e-02
 4.7907597139248e-02
 2.4932424435380e-02
 2.0455716648428e-02
 2.2198892264214e-02
 2.4189549209615e-02
 1.2542129696676e-02
 9.8753976494237e-03
-7.9146758591442e-18
-1.2576745200832e-17
-3.2742905609062e-17
 5.5441298298781e-02
 3.3646594178169e-02
 3.3074106918348e-02
 1.7948442243352e-02
 2.4621154859204e-02
 1.5068414406356e-02
 1.0734722636272e-02
 4.6282297911375e-03
-1.4311468676809e-17
 7.8062556418956e-18
-3.2959746043559e-17
 6.6855397447860e-02
-2.0907223792474e-02
 2.3553948622460e-02
-3.2988268824056e-02
 1.7375000864263e-02
 1.0500753605356e-02
 1.4879769397592e-02
 3.5927648856237e-02
 4.0766001685455e-17
-1.7347234759768e-17
 6.0715321659188e-18
 5.1261858775316e-02
 1.1540577763228e-02
 5.3163318821703e-03
 1.3576784141378e-02
-6.0715321659188e-18
 1.1188966420050e-16
-2.8622937353617e-17
 3.6874229895289e-05
-8.3102054118101e-06
 5.9220425234541e-05
-1.9548953929416e-05
 2.8217446654821e-06
-2.0030425578188e-06
 3.4899139027544e-06
-3.4507599657729e-06
-1.7110065534537e-19
 4.2690460541617e-19
 1.8634724839595e-19
 3.6846080165631e-04
-7.3439626718574e-05
 3.1554033283920e-04
-7.8255520215009e-05
 6.6409533509670e-05
-2.8774975027401e-05
 6.7282309389682e-05
-3.0562987316074e-05
 4.3368086899420e-19
-1.7076184216647e-18
-1.1655173354219e-18
 7.4529605280382e-04
-9.9209387058430e-05
 4.1784712550097e-04
-7.5866765598676e-06
 2.0831041359770e-04
-7.3677447079978e-05
 1.3667876822687e-04
-3.9509677796090e-05
-6.2815963368379e-18
 3.0696474008496e-18
-2.6495190590114e-18
 6.6307231088647e-04
 1.0866371480933e-04
 2.3375990885133e-04
 1.2777765783767e-04
 2.4644285942799e-04
-5.6168174109583e-05
 1.0443112120306e-04
-6.1229924757100e-06
 3.0628711372716e-18
-1.4636729328554e-18
-4.2554935270056e-18
 4.1122436926066e-04
 4.1374508500436e-04
 1.7706882686785e-04
 3.1918922401530e-04
 1.4064033866390e-04
 2.6332828453990e-05
 4.1641483775834e-05
 3.2129714854889e-05
 2.8595832299305e-18
-1.7347234759768e-18
-2.0057740190982e-18
 7.7482760793490e-04
 1.1678189132303e-03
 5.5526902972858e-04
 9.6300085625245e-04
 6.6802315259906e-05
 1.9689813440316e-04
 7.6171622358956e-05
 1.2109635669866e-04
-4.9060148304969e-18
 3.6320772778264e-18
-3.0628711372716e-18
 2.3079499779257e-03
 2.2137854389577e-03
 1.6566434228302e-03
 1.8665770448862e-03
 2.1157166526109e-04
 7.7515679436191e-04
 2.1786123154932e-04
 5.5820926039729e-04
 8.0230960763927e-18
-1.4961989980300e-17
 1.7889335846011e-18
 5.6495365063718e-03
 9.4188416231411e-04
 5.1701000798880e-03
-1.3355359060725e-03
 1.0032674739122e-03
 2.0734200740811e-03
 5.9818707674531e-04
 1.8392134491734e-03
 1.5178830414797e-18
 2.2768245622196e-18
 1.4148838350936e-17
 1.6392963490308e-02
-1.3634500851060e-02
 1.3879920046290e-02
-1.7323563315159e-02
 4.5703684727201e-03
 1.9932259513400e-03
 3.4599904349690e-03
 1.0739239749693e-03
 6.5052130349130e-18
 4.3368086899420e-19
-3.8272336688738e-17
 4.4702099503489e-02
-3.4635184667106e-02
 2.7285332620221e-02
-2.2277252569566e-02
 1.2358739390180e-02
-6.4454287777611e-03
 8.9708505150341e-03
-9.3893668264080e-03
 1.4311468676809e-17
-3.6429192995513e-17
-4.1199682554449e-17
 6.4371173774543e-02
-3.9099016002815e-02
 3.3230571781825e-02
-1.7288274997981e-02
 2.4086499407346e-02
-1.8631969231002e-02
 1.5088534942183e-02
-1.7165643143915e-02
 7.3725747729014e-17
-5.4643789493269e-17
-4.2934406030426e-17
 6.2355829491103e-02
-3.2812753274950e-02
 3.0289551801893e-02
-1.2651501586987e-02
 3.1655582160852e-02
-2.3074924773129e-02
 1.6814088816680e-02
-1.4381989111179e-02
-8.7169854667835e-17
 4.1199682554449e-17
 3.4477629085039e-17
 5.2396653625415e-02
-2.5381992704712e-02
 2.5347854132935e-02
-1.0037103362350e-02
 3.1452682755287e-02
-1.9879134193580e-02
 1.5218593005365e-02
-6.6393626743704e-03
-8.6410913147095e-17
-2.6020852139652e-18
 1.2793585635329e-17
 4.5406636858949e-02
-2.0071469775218e-02
 2.1591226120107e-02
-9.2478443239088e-03
 2.7913367327642e-02
-1.4228328769704e-02
 1.2337031323149e-02
-3.2117835219552e-03
 1.4452414959232e-16
-1.1709383462843e-17
 6.9388939039072e-18
 3.9171155457645e-02
-1.6353615878458e-02
 1.8535630369850e-02
-7.4429060749139e-03
 2.2656518091964e-02
-9.5498131285083e-03
 9.7245568696067e-03
-5.8000978108197e-04
-7.3942588163511e-17
-3.0791341698588e-17
 4.0115480381964e-17
 3.4169034696056e-02
-1.1739522678944e-02
 1.5887531282653e-02
-4.9775482919472e-03
 1.8624483318604e-02
-5.4804559763273e-03
 7.5176633499012e-03
-6.1566873303320e-04
 6.4293188828390e-17
-3.8814437774981e-17
 8.0556221415673e-17
 2.9075422950214e-02
-5.4125150585307e-03
 1.3574563061375e-02
-1.0218108886875e-03
 1.4263086042746e-02
-1.5003033619614e-03
 6.0221818403505e-03
 1.4481297124718e-03
-7.3183646642771e-17
-5.4210108624275e-19
-4.6837533851374e-17
 2.5217924962604e-02
 2.6612763861778e-03
 1.1867035751083e-02
 3.4462863989688e-03
 1.1976677516884e-02
 2.7130671058657e-03
 4.9830797489676e-03
 2.3093245765722e-03
-3.0086610286473e-17
 2.8026626158750e-17
 2.9503851618762e-17
 2.2471013628277e-02
 1.1787797046658e-02
 1.0723053207934e-02
 8.1428574790152e-03
 9.5206671272763e-03
 7.1494612637100e-03
 4.4160329923813e-03
 4.9993563283834e-03
-2.7240579583698e-18
 4.1443628043258e-17
-5.4040702034824e-17
 2.0813007468213e-02
 2.1453823531438e-02
 1.0278749326522e-02
 1.3337847226978e-02
 8.8191854502213e-03
 1.1433584101383e-02
 3.9927258286951e-03
 6.5654847676484e-03
-4.2256779672622e-17
 1.0015317568335e-17
 3.7310107260657e-17
 2.0585245081193e-02
 3.1031029116797e-02
 1.0165929778085e-02
 1.7515744793087e-02
 7.9104837950013e-03
 1.5950506589884e-02
 4.0610605205202e-03
 9.0321138067395e-03
-4.3164798992079e-17
 6.6244752738864e-17
-8.5482565036904e-17
 2.0723085889962e-02
 4.0520629746091e-02
 1.0813602680651e-02
 2.2963282862207e-02
 7.9219103008654e-03
 1.9702481543968e-02
 3.7841305151432e-03
 1.0956376019919e-02
 6.7220534694101e-18
-1.9515639104739e-18
 3.9166803481039e-17
 2.2476057082226e-02
 4.8912573461720e-02
 1.1281171819089e-02
 2.5649129594498e-02
 8.1975751336500e-03
 2.3921988513700e-02
 4.4963483534666e-03
 1.2415013741073e-02
-2.6258021364883e-18
-3.7161029461941e-17
-4.1470733097570e-18
 2.3671031048433e-02
 5.6724498586107e-02
 1.2858811180881e-02
 3.0842967673713e-02
 8.1710535278177e-03
 2.6087690617693e-02
 3.7583000848356e-03
 1.4312806960388e-02
-2.0654051385849e-17
-1.8431436932254e-17
 2.4502969098172e-17
 2.6799913084527e-02
 6.0862894896284e-02
 1.3217149820164e-02
 2.9845815003590e-02
 9.5292095286084e-03
 2.9024153885183e-02
 5.6197911430900e-03
 1.3437956927209e-02
 5.4670894547582e-17
-9.7578195523695e-19
-1.9949319973733e-17
 2.7933265841999e-02
 6.2869184906178e-02
 1.6253693663520e-02
 3.2441917964746e-02
 9.6098105179010e-03
 2.6509515778398e-02
 3.3562565845955e-03
 1.4164338610975e-02
 1.9732479539236e-17
 3.2526065174565e-18
 5.3396956994911e-17
 3.4937976385809e-02
 5.4796715925727e-02
 1.7468538727428e-02
 2.3560978391686e-02
 1.3347826663391e-02
 2.7304922657265e-02
 1.0379467085187e-02
 1.1529365070082e-02
-4.3042826247675e-17
-1.7347234759768e-18
-1.0570971181734e-17
 4.3764000983394e-02
 4.6273411721685e-02
 3.1263836635651e-02
 3.0820191198501e-02
 1.9669140306661e-02
 1.6379517005198e-02
 6.1322056789095e-03
 6.9918252070522e-03
-2.8622937353617e-17
-1.3877787807814e-17
-7.3292066860020e-17
 6.1322635603734e-02
-3.0935085261277e-02
 1.8774106772758e-02
-4.2616036287171e-02
 8.2533085433738e-03
 1.2978304530023e-02
 1.0583010557387e-02
 4.1043502450663e-02
 5.7245874707235e-17
-5.2041704279304e-17
-1.2143064331838e-17
 8.1907372134168e-02
 3.5511018197027e-02
-9.4979331538525e-03
 4.6951639113317e-02
 9.3675067702748e-17
 1.6653345369377e-16
 1.3877787807814e-17
 2.2006287876408e-06
-2.0259751520868e-06
 4.0293742231690e-06
-3.2772127127600e-06
-3.1204998407475e-07
-6.6758000460965e-08
-5.8485069942549e-07
 4.6707789991274e-07
-1.2874900798265e-19
-6.4374503991327e-20
-6.7762635780344e-21
 6.4901538289419e-05
-3.5774807900069e-05
 6.6963901983907e-05
-4.5064282048202e-05
 6.5302714205018e-06
-7.5301341893042e-06
 7.7650403884633e-06
-1.2182536039518e-05
 5.5565361339882e-19
-3.7947076036993e-19
-1.3552527156069e-19
 2.1680672640834e-04
-1.3310317371928e-04
 1.4959781981894e-04
-9.0594536608535e-05
 3.4947979806077e-05
-5.0383400883369e-05
 2.7459407425212e-05
-4.0336364611093e-05
 4.0928632011328e-18
-2.1175823681358e-18
-2.2564957714855e-18
 2.8932410950144e-04
-1.6483267403533e-04
 1.3524332506765e-04
-6.5101333248663e-05
 6.0198547565449e-05
-8.6433358767790e-05
 3.1149463282532e-05
-4.1197608368293e-05
-2.5749801596531e-18
 1.4331797467543e-18
-3.4558944247976e-19
 1.8929073599772e-04
-7.8740989205350e-05
 4.5950940162687e-05
-5.5316524552040e-06
 4.3341925504592e-05
-7.5754534242689e-05
 9.5765850769425e-06
-2.7214681644239e-05
 1.8160386389132e-18
 3.3881317890172e-19
-2.0565959959334e-18
 7.0831436906893e-05
 6.1370852821874e-05
 2.0958594035614e-05
 8.3657877212318e-05
 2.2984092566958e-06
-6.3213606077417e-05
-1.0200225307955e-05
-2.9558887248982e-05
 4.2825985813177e-18
 5.4210108624275e-20
 2.6054733457542e-18
 2.3826989653664e-04
 4.4494102165071e-04
 1.8683878246417e-04
 4.5214943999383e-04
-5.4283570065650e-06
-4.7735140242144e-05
 9.9008306158055e-06
-1.4501421711444e-05
-2.6285126419195e-17
 5.9631119486703e-19
-2.2314235962467e-17
 8.8766622999792e-04
 1.5245238449744e-03
 6.3172268981226e-04
 1.2611299561911e-03
-1.5052251264080e-05
 1.1822827213859e-04
 4.4936369233639e-05
 4.1768052984281e-05
 8.9229838795557e-17
 8.1532003370910e-17
 1.5856456772600e-17
 2.3076124286163e-03
 2.1539786632729e-03
 1.7921022880358e-03
 1.7873181919583e-03
 6.3509324270683e-05
 8.0618788940701e-04
 7.7639174151045e-05
 5.6788460542201e-04
-7.4972580227373e-17
-6.2883726004159e-17
 5.4562474330333e-17
 6.1846959669349e-03
 1.0933191819875e-03
 5.5084114498030e-03
-2.0194154713948e-03
 3.2002459876423e-04
 2.1174996368045e-03
 6.4679223800823e-05
 2.0376107367088e-03
-8.4567769453869e-18
-9.6493993351210e-18
-1.4257258568184e-17
 1.7399446648042e-02
-1.2811521307784e-02
 1.3231953779867e-02
-1.4193508351767e-02
 1.9607946143765e-03
 4.0203129180316e-03
 1.6872357510564e-03
 2.5356344256622e-03
-8.4567769453869e-18
 2.1250362580716e-17
 1.0760706561919e-17
 3.8172749862388e-02
-3.3689986844401e-02
 2.3572542925833e-02
-2.1587217678771e-02
 6.1829612173767e-03
-2.6687296616412e-03
 4.5588581204790e-03
-4.4127893413730e-03
 1.3010426069826e-18
-3.7730235602496e-17
-3.1658703436577e-17
 5.6785730715596e-02
-4.3016847335757e-02
 2.9935985539817e-02
-2.1458231241411e-02
 1.2637668135326e-02
-1.4794114640527e-02
 8.9919711818069e-03
-1.3366519927313e-02
 1.0560129160009e-16
 7.8062556418956e-17
-1.0408340855861e-17
 5.9758856750449e-02
-4.1476420859858e-02
 2.9582740862477e-02
-1.8364528580889e-02
 2.0896067441882e-02
-2.6131708248528e-02
 1.2248512878351e-02
-1.6842141302781e-02
-3.7947076036993e-18
 8.2399365108898e-18
 5.1499603193061e-17
 5.5103097723183e-02
-3.3548669781460e-02
 2.5043542921627e-02
-1.4855056751713e-02
 2.4139143304211e-02
-3.1009390191084e-02
 1.2115655559512e-02
-1.9638087682324e-02
-8.9338259012806e-17
 3.4477629085039e-17
 3.1875543871074e-17
 4.0999470777102e-02
-2.3386056178488e-02
 1.9020643011217e-02
-7.9673054399052e-03
 2.2064010217463e-02
-3.1169094526744e-02
 9.4733510800822e-03
-1.2929338172356e-02
-7.0066565396876e-17
-1.0625181290358e-17
-3.7052609244692e-17
 3.3122826613130e-02
-1.0825043182677e-02
 1.4104070809297e-02
-3.4056073949671e-03
 1.8078734361268e-02
-2.4489807793957e-02
 7.4392306454527e-03
-1.3740073001351e-02
 3.6618928375698e-17
 5.6703773620992e-17
 6.0715321659188e-18
 2.1695929609116e-02
 1.9993044914273e-03
 1.0492210252092e-02
 5.5290573191087e-03
 1.1880669383714e-02
-1.8241016504195e-02
 4.5455503116472e-03
-2.2444820419949e-03
-9.0910352162909e-17
 2.1900883884207e-17
 1.1655173354219e-16
 1.9870616440919e-02
 1.4883591823626e-02
 8.0748716370245e-03
 8.7454935187168e-03
 1.0893223704699e-02
-7.8413723594881e-03
 4.4843947941331e-03
-6.9275553348334e-03
 3.7513395167999e-17
 5.1716443627559e-17
-1.1064283170215e-16
 1.2416281497096e-02
 2.7435003468284e-02
 6.8270709314069e-03
 1.8729758435995e-02
 4.3504686734082e-03
-2.0330143615439e-03
 1.6548869251523e-03
 8.8546081559073e-03
-8.4567769453869e-18
 3.7404974950750e-17
-8.2182524674401e-17
 1.4497331579083e-02
 3.8708382997946e-02
 5.4892202755710e-03
 1.9385315310046e-02
 8.3975116945965e-03
 9.1728798958641e-03
 3.5765900879028e-03
-2.2892443466631e-03
 1.7564075194265e-17
 1.7672495411514e-17
-6.4997920240506e-17
 8.6102818304354e-03
 5.0352446354768e-02
 5.6543147762262e-03
 3.0792247352139e-02
-1.2450179925736e-03
 1.2376811385458e-02
-6.2779472002461e-04
 2.0326224634442e-02
 5.3505377212160e-17
 3.8326546797363e-17
-4.9358303902403e-17
 1.2375038355994e-02
 5.9042976702123e-02
 4.0649181537393e-03
 2.7790601349921e-02
 8.9095328526696e-03
 2.4808464526409e-02
 3.6341057891143e-03
-7.7516251658061e-04
 8.1532003370910e-17
 3.6754453647259e-17
 1.9895109865109e-17
 6.9071645886556e-03
 6.9310418760644e-02
 5.6994120548817e-03
 4.0819668274301e-02
-8.2305615215148e-03
 2.3596062100548e-02
-3.7932215453367e-03
 3.3338441810452e-02
-6.1799523831674e-18
 2.4286128663675e-17
-5.7842185902102e-17
 1.1369348878463e-02
 7.2470857333372e-02
 2.8955984627075e-03
 3.1820517273907e-02
 1.2044513134128e-02
 3.9088367781801e-02
 4.4644984482538e-03
-4.2041421269161e-03
 6.0227430681570e-17
-1.9949319973733e-17
 1.7509865085641e-17
 7.7901490120933e-03
 7.9218241067558e-02
 8.4505637447316e-03
 4.5204618943302e-02
-1.8965427590004e-02
 3.0212357468358e-02
-8.4388190030893e-03
 5.0696247904199e-02
 2.6020852139652e-18
 2.2985086056693e-17
 6.0552691333315e-17
 1.5094314867689e-02
 7.1157917593762e-02
 3.9181855836521e-03
 2.9273312325898e-02
 2.3597287229961e-02
 5.6452154185600e-02
 8.2417378582988e-03
-1.4395940681723e-02
-5.5185890579512e-17
 2.1684043449710e-17
-3.9275223698287e-17
 2.1871781247725e-02
 7.6492682225069e-02
 2.5193243014677e-02
 5.4425269959836e-02
-2.8990351235507e-02
 3.6894895189341e-02
-3.3984715930714e-02
 7.8002005621357e-02
-1.0625181290358e-17
 1.9949319973733e-17
-3.3285006695305e-17
 4.1754658407676e-02
-4.0199214997458e-02
 4.8826776898959e-02
 1.9037261961046e-02
 1.0885115847032e-01
 1.2553533160690e-01
 6.3800136166160e-02
 1.7122472582187e-02
 3.6429192995513e-17
 6.9388939039072e-18
 6.9388939039072e-18
 3.0595493980518e-01
 1.5661366963542e-01
 2.4733988137427e-01
 2.8048077287461e-01
-8.3266726846887e-17
-2.7755575615629e-17
 2.4286128663675e-17
 1.4410658444319e-08
 2.5360614053227e-08
 7.9062233648841e-08
 5.0683146923802e-07
-4.4045713257224e-19
 7.1150767569361e-20
-2.0328790734103e-20
 4.4086588752989e-06
-5.1041433870580e-06
 5.1700630030460e-06
-8.8620572427089e-06
 2.7952087259392e-19
-2.2700482986415e-19
-6.8779075317049e-19
 2.0146137757138e-05
-3.8809155970654e-05
 1.5074762551581e-05
-3.1273806882837e-05
 6.7762635780344e-21
 7.2844833463870e-20
 4.8111471404044e-19
 3.2616915309092e-05
-6.6751180371583e-05
 1.6581566009366e-05
-3.2738816649669e-05
 8.2670415652020e-19
 1.0842021724855e-19
-2.8799120206646e-19
 2.2625106679719e-05
-5.7127819619751e-05
 5.2324849098007e-06
-2.3120489686335e-05
 7.2167207106066e-19
-1.4602848010664e-18
-7.6402371842338e-19
 7.9832076060882e-08
-4.8776434562470e-05
-3.8587402908519e-06
-2.5552201229573e-05
 1.1011428314306e-19
 1.8905775382716e-18
 1.1350241493208e-18
-5.9863441297381e-06
-5.1244581600329e-05
-2.3599831506793e-06
-1.8464333038537e-05
-2.8460307027745e-19
-6.6407383064737e-19
-2.1277467635028e-18
 4.9898934353365e-06
-1.1689433956796e-05
 1.4030369822615e-05
 1.7056911680413e-05
 9.4867690092482e-20
-3.5236570605779e-19
-6.9117888495951e-19
 1.0849774269151e-04
 2.0947219882928e-04
 7.0264497131101e-05
 2.4674689731086e-04
 4.6078592330634e-19
 1.1384122811098e-18
 6.7762635780344e-20
 3.4693218383985e-04
 8.3736852989169e-04
 2.0897175152523e-04
 8.1005266882528e-04
-1.0842021724855e-19
-1.6263032587283e-18
 1.8431436932254e-18
 8.6105469847375e-04
 9.9914266575496e-04
 6.4520418063196e-04
 3.5680297654039e-04
 5.6107462426125e-18
-1.5178830414797e-18
-8.0773061850170e-18
 1.6896483277229e-03
-1.3566580856210e-03
 1.3586488959305e-03
-9.7511876526824e-04
 4.9873299934333e-18
-2.3852447794681e-18
-3.6862873864507e-18
 3.9075581081285e-03
-4.8971063022840e-03
 3.4626312779977e-03
-3.8099178991047e-03
-3.4748679628160e-17
 1.3877787807814e-17
-3.7947076036993e-18
 1.1644805659195e-02
-1.5904082188868e-02
 6.2621524301534e-03
-1.3723549167850e-02
-2.6888213877641e-17
 1.4528309111306e-17
-2.4936649967167e-18
 1.1068583697210e-02
-3.0952955253419e-02
 7.3203680243452e-03
-1.6780726238579e-02
-4.0115480381964e-18
 1.6046192152785e-17
-1.8973538018496e-17
 1.9813419154342e-02
-3.9762078549678e-02
 7.2294908099337e-03
-2.4810877099895e-02
 5.8546917314217e-17
-1.7130394325271e-17
 2.4882439858542e-17
 4.5314579325080e-03
-4.0982901996042e-02
 5.3509079498078e-03
-1.4542996324025e-02
-1.8106176280508e-17
-1.2359904766335e-17
 2.7159264420762e-17
 2.0743323368329e-02
-3.6335770898567e-02
 4.7781215289575e-03
-2.4327093056087e-02
 6.6244752738864e-17
-3.1658703436577e-17
 5.1608023410310e-17
-8.1516097821179e-03
-3.0666431878316e-02
 2.5550763231728e-03
-3.3281012946986e-03
-7.7845715984459e-17
 8.2399365108898e-18
-4.1145472445825e-17
 2.5907739814627e-02
-2.3216499800057e-02
 3.1767730725925e-03
-2.4018810847849e-02
 2.7105054312138e-17
 6.9388939039072e-18
 3.1008182133085e-17
-2.3516013648678e-02
-1.7888756219747e-02
 5.8041349081606e-04
 1.1377495297125e-02
 2.2334564753201e-17
 2.1684043449710e-17
-7.4376269032506e-17
 3.8893710170918e-02
-1.0780957817548e-02
 2.3695142826874e-03
-2.9459888386597e-02
-3.2526065174565e-17
-3.5561831257525e-17
-5.2041704279304e-18
-4.6802279252734e-02
-8.2464156158331e-03
-1.4943846318580e-03
 3.0854719470270e-02
-2.6671373443143e-17
-9.5409791178724e-18
-6.0715321659188e-17
 6.3360969107592e-02
-2.5347349179228e-03
 1.1849466332397e-03
-4.7670627839205e-02
-9.1072982488782e-18
-2.6020852139652e-17
-5.6378512969246e-17
-8.9314510369166e-02
-7.0153680348506e-03
-4.5530063545787e-03
 6.0614247485383e-02
-1.8431436932254e-17
-6.9388939039072e-18
-4.6837533851374e-17
 1.1182230839909e-01
-3.0576634672954e-03
-1.9077031014199e-03
-9.7451440105829e-02
-7.6761513811974e-17
 2.0816681711722e-17
-3.1225022567583e-17
-1.7751164890158e-01
-2.2379868059431e-02
-4.7242952526805e-03
 1.2839100469330e-01
-2.6020852139652e-18
-2.0816681711722e-17
 4.3368086899420e-17
 2.4094300027155e-01
 4.0647371559253e-03
-2.6733073626873e-02
-3.2350744109482e-01
 9.7144514654701e-17
 6.9388939039072e-18
-3.4694469519536e-18
-4.9676491742370e-01
 3.3869565348361e-02
 1.4660014430992e-01
 7.5091375881891e-01
 4.1633363423443e-17
-1.3877787807814e-17
 5.5511151231258e-17
 1.4124853463821e+00
 8.8432318963820e-01
-6.9388939039072e-17
 2.7755575615629e-17
 1.3877787807814e-17
