%%MatrixMarket matrix array real general
2395 1
-2.9033578926446e-16
 6.3108719130774e-18
-1.9892331597042e-15
-2.6047533677491e-17
 1.3151774692899e-18
 4.8770039520535e-17
-4.9953768064322e-18
-3.1071438553586e-15
-1.7451589218870e-16
 2.7530106032982e-17
-1.7503766448421e-15
 2.0597300178383e-17
 1.0441798657277e-18
 2.1243586317138e-18
-3.7789866721982e-16
 2.1219710575937e-17
 4.1038746294471e-19
 8.2973653447137e-17
-7.3638926851921e-19
-3.5628323343884e-18
-1.3526057376467e-19
 2.1184294010830e-18
-4.4380460677979e-16
-3.3498035481539e-18
-2.1379450401877e-15
-1.8102788148719e-17
 9.8628880337760e-21
 8.0891646462786e-20
-4.3812779196729e-19
-3.3755533497505e-17
-6.6557433627854e-20
 1.1914831304200e-16
-2.0438163863417e-17
-2.4128309484943e-15
-1.7671224862093e-19
 2.2155205526620e-19
-5.6192165720850e-18
 2.3244595775908e-17
-2.9068984903641e-15
 5.0689627937249e-21
 3.5575383784681e-20
-8.3372804488641e-17
-3.1570241433148e-17
 4.0424647407711e-19
-2.5093351062409e-20
-5.5004202012326e-19
-1.8848945593092e-17
-1.7131241358218e-19
-2.4246318115154e-19
 4.5884277678578e-17
-1.2911429094116e-18
 1.4060746924421e-18
-6.4482633041000e-18
-1.6422884645088e-15
 6.9737069580394e-17
 1.5805800231888e-17
-1.3570886595201e-16
 1.3927339235229e-18
 4.4394783475721e-21
 1.9947318610241e-17
-2.9223113136306e-17
 4.6239396241714e-22
 1.2092136475884e-17
 2.1989398827195e-17
-1.9959907885574e-15
 6.3913929826257e-19
 2.8638183946668e-18
 1.5130126020330e-19
 5.4759356551010e-20
 1.2047786360161e-18
 2.2848713752185e-19
 6.5903808742705e-17
 2.7509959221982e-21
-4.8383172111127e-17
 4.0636281567433e-21
 3.3830800315802e-17
 1.0690128203333e-17
 2.4331021409880e-19
-2.9727837239390e-21
 8.5656206791091e-19
-4.0634767826912e-17
 6.9154099154446e-17
 1.1877617441058e-16
-8.8144366073651e-21
 7.5841109117205e-18
-1.2288648119647e-16
 4.7963240638275e-19
-2.0746219158422e-18
 2.0354201722521e-18
 8.9563675655894e-18
-6.2372795730376e-16
 3.4946885337818e-17
-1.8927764358027e-15
 3.0107786110154e-18
 1.3196773318222e-18
 3.4002020085156e-18
-6.4238052277480e-18
-8.6532521932030e-19
 6.0541679905001e-19
-1.0109801446623e-20
 8.4315141877351e-17
-5.5890992568542e-17
 1.1056744576984e-17
-3.5257746429460e-20
 9.7354049430028e-17
-3.0916909369935e-21
 5.2079779402900e-18
-1.5698543857761e-20
 3.5998264983597e-17
 7.0922647700031e-18
-2.4296248804880e-19
-5.1647833958831e-19
 2.3579279669192e-19
 2.2183743257753e-18
 5.6835540183849e-17
-2.3406233485046e-19
 9.1903074777092e-20
-9.3629102930469e-18
 5.2304284492953e-20
 2.6063203787015e-18
 6.6151632054226e-17
 3.5398777415178e-17
-6.1682972098132e-16
 6.0536385949081e-20
 2.6242139497122e-19
-8.8446121561110e-19
-5.2259391746749e-17
 5.1930398856079e-21
 5.8514174196850e-17
-4.4680987967664e-20
-5.7727942333341e-18
 4.2192738373784e-17
 1.7279472123988e-19
 1.9271593010088e-17
-4.5751366562451e-15
-4.2347412197979e-18
 1.1197775562702e-17
-2.2360314554798e-16
 5.6319008904702e-17
-2.1694631361551e-19
-1.2600250365118e-17
 1.8906860643680e-17
-1.5786576554452e-18
 2.4440129841398e-17
-1.3441423564913e-17
-9.1421324788341e-18
-3.4753321368711e-15
 2.6956823546368e-18
 5.7118819765147e-17
-3.2921788379611e-21
 1.7577588016752e-22
-6.9813793063750e-17
 4.7543641692029e-17
 2.3443994280008e-19
-1.5945395232062e-19
-1.1725432090216e-16
 1.5094391817868e-20
 5.8074590567005e-17
 3.1234339930002e-19
-1.1226892320264e-18
-4.6787530783345e-17
 2.8812355096447e-19
 1.2551969487125e-19
-4.9954019527229e-17
-4.3792016963354e-19
-2.2974498144852e-17
 6.3628651776600e-18
 4.2261332474714e-17
-1.7050361802809e-17
-2.1988551794248e-17
 6.2528236864109e-20
-2.1444539920790e-17
 2.1672132048889e-22
-1.9058241313222e-20
-2.9976826875575e-18
-1.8095694247786e-17
 2.7253260262489e-18
-4.9622564947056e-21
 5.0793812989762e-17
-1.2387856853594e-20
 1.4417556244730e-17
-1.1522625932864e-21
 1.2080807410214e-19
 6.6595318499909e-17
 1.1619339062903e-17
-2.5212465070616e-21
-1.9294351747269e-18
-7.0982436314707e-21
 7.7754977579985e-23
-1.3112864116885e-17
-2.2693700105392e-21
-9.2326591250719e-20
-5.7405193001935e-18
-1.8234607651135e-17
 2.7287159778352e-17
 3.4212719530785e-17
 1.7776210625438e-18
-2.4038523992534e-15
-1.2178216199149e-17
-1.4992483166401e-19
-5.2013447789579e-18
 3.5609265102571e-18
-2.8120064480744e-17
-7.2823028982923e-18
 2.6876355416379e-18
-1.5521481711741e-18
 8.0667050382865e-18
 1.9693516023662e-19
-2.7514435923458e-17
-3.7300419321323e-17
 4.5809229235962e-18
 4.0339944112986e-20
-6.1300303788386e-18
-3.2815313691163e-18
 6.4040786244998e-18
-1.5590286595093e-18
-8.0850353606607e-18
-2.5888647237245e-15
 9.9531541181209e-21
 2.0699367648527e-19
 2.7740329022578e-19
-1.5410374811863e-21
-1.7235902866763e-17
-9.7375701709742e-21
 7.6272256331983e-21
-3.5227967927408e-20
-4.6417206986189e-17
 6.1833405149564e-20
 6.8318501151980e-20
-5.4340596365905e-22
 6.8927306082819e-20
 2.4840299969416e-18
-3.0766982883910e-21
-3.8416418316555e-19
 2.5675686213646e-20
 1.4208977690191e-19
-7.6820594360045e-18
-1.3117046342062e-17
 1.2925110661447e-20
 9.7868198429012e-17
-2.5199230180815e-20
 8.3220987067735e-19
-5.9881440883674e-18
 4.4656437247084e-18
-1.3404296390299e-19
 7.0913598344130e-18
 1.6041815953755e-17
-4.2077023399347e-20
-9.8086415292048e-19
 3.8762345248725e-19
-1.3223375446722e-18
-5.5091361702599e-15
-6.3485119396710e-18
 1.7496524316722e-20
-5.7026493173896e-19
-4.1735261486998e-15
-6.4135979513380e-16
-6.3110075706978e-19
 3.1479979484706e-18
-1.6186270226438e-18
-1.1801868872772e-17
 3.2521830009829e-17
-1.3396778972892e-17
 1.8204571068732e-17
-2.5448935493666e-16
-1.9495601481581e-17
 3.3179101107119e-17
-1.3390399756008e-19
-4.2487880700880e-17
-7.0375974372953e-18
-2.9752032272307e-20
-1.7780267119162e-17
-4.8580979119729e-18
-2.0524667103156e-19
 2.6342724659609e-19
 4.8894976880254e-19
-1.0954994744195e-17
 2.4984824966042e-19
 6.6977448645949e-17
-5.4861265202477e-19
 1.6720430378800e-18
-2.1825325898334e-18
-9.2761966185607e-15
-2.7719153198897e-17
 2.0100488885039e-22
-7.4780022506938e-19
 4.0287004553783e-18
-4.2430777528063e-19
-7.4481565815761e-17
-2.1570752793015e-18
-5.7698825575779e-19
-8.9516710408664e-21
 5.6010053637191e-20
-1.3828342259519e-18
 5.7742236014326e-18
-2.7110348268058e-19
-3.1574393879823e-19
 3.1604916844426e-18
-2.9520351820574e-15
-3.4431889305887e-19
 1.2103306722876e-20
-7.5534282185410e-17
-9.2648516710235e-17
-3.7173496728133e-21
-2.2909774239770e-15
 1.3870164511289e-20
-1.0008617774891e-12
-7.3429186935802e-18
-3.0162758879303e-17
 2.5423090400863e-16
 6.8995703993309e-17
 1.2778360548974e-17
-1.1309583911739e-17
 1.5101427324349e-12
-6.5042865926270e-18
-1.3709228251311e-18
 5.1186970280547e-21
 2.4694416742225e-17
-7.5227113628023e-20
-3.2717044634391e-18
 4.6260075757028e-21
 1.7381357614397e-17
 5.8445273360547e-20
 7.5234842803666e-17
-2.3001078038737e-15
-1.4823056724616e-17
 4.1900337620506e-18
 3.5116401942290e-22
 6.0629358361595e-17
-3.9630223147416e-20
 2.6791652121654e-18
-1.1399806155512e-17
-8.5130119921507e-20
-2.1684837543098e-18
 3.3093621916979e-17
-4.0923145218927e-22
 4.3551555559284e-19
 4.1432616614944e-18
 7.0409613740514e-20
 1.6857146790443e-17
 3.7692966152816e-19
 1.4945049321355e-17
-9.1748143848360e-19
 2.8719295623174e-17
 6.0285346559338e-17
-3.0214194624153e-18
 6.4692141346547e-19
 3.5221165194051e-17
-2.4777235719515e-18
 1.6775222822575e-19
 1.1699642583950e-19
 2.2255790689107e-19
-6.4374503991327e-20
-3.5972562827604e-18
-1.1759728983646e-18
 3.8264713392213e-19
 3.5668028013287e-21
 4.1283115299754e-17
-2.6113496368258e-17
 4.3399685198820e-19
 3.1181130709919e-17
 1.3856929621488e-20
 2.8761069898469e-21
 1.0355970396919e-19
 8.7032635330379e-20
-2.1643997568305e-17
 1.3653112318555e-19
 6.6784312726265e-18
-4.0144564052301e-19
 5.4932204211809e-18
-4.1976438236861e-18
-3.0586042087998e-17
-2.6415953304877e-17
-2.7304276461332e-16
 4.3673018760432e-18
-8.0864541408473e-17
 1.9292066660827e-18
 2.0489991691877e-17
-1.1774419711325e-19
 1.7834014006643e-20
 5.9220961979968e-22
 1.5458351287391e-20
-9.6053536218638e-19
-2.5164276836851e-17
 1.9836849880206e-17
 8.4632779232571e-17
 6.1225808936395e-18
-2.3004620754039e-17
-4.5843764440127e-17
-1.0257039595657e-22
 3.3153398951125e-20
 2.0224863761942e-18
 2.5422465755423e-17
 2.3636262487229e-17
 2.0588525446445e-21
 7.3607493988644e-20
 1.2743949008311e-17
-1.2281977735187e-19
 9.0547822061485e-18
 7.5009002644105e-18
 2.4464429099072e-18
-2.7023315632728e-15
 9.7082681249552e-18
 1.0511700051250e-16
-5.5917409408585e-22
-4.6349090317106e-17
-2.5113203397110e-21
 9.9019276499661e-18
 2.5609511764642e-20
-4.4738956784992e-17
-1.6946697363558e-19
-2.9889509690114e-19
 3.7562016017224e-17
-2.8182043469682e-21
-7.4452980108152e-17
 1.5124170319920e-20
 2.9556552949949e-18
-5.8021659693198e-18
 1.3846208792063e-17
 2.9778502051909e-23
 2.0541541587652e-19
 1.2019906237615e-18
-4.4000083493093e-17
-5.5977853150305e-17
 3.2080132106338e-21
-7.4856536713599e-19
 5.0044427059458e-23
-1.4016032849229e-17
 3.7599494743598e-21
 2.1665833895705e-17
 4.5623146685362e-21
 2.3064190993032e-17
-1.1715359015588e-20
-1.4461686330410e-17
 1.5364754146719e-17
-4.3964649557193e-22
 9.0664591012656e-18
 2.0967737712873e-17
 1.5532900940097e-21
-1.2655863372061e-22
-9.4754185402803e-22
 1.2893884593323e-20
-8.2659165995689e-18
 2.0649075067284e-19
-1.3153826100818e-17
 5.0595847834566e-17
 2.6585399598997e-17
-6.7762635780344e-21
-4.9219046391918e-17
-7.9409338805091e-23
-2.3075344696412e-18
 2.6800651846718e-22
-2.6221625417931e-21
 4.6696052879403e-17
-8.4256617194651e-21
 1.5427656269220e-17
 3.0959054222145e-19
 2.8419331808921e-17
 9.1426618744261e-19
-1.1952534858265e-17
-2.8291376894326e-17
-1.8493905612114e-18
-2.5238153991720e-17
 1.2713766014940e-21
 6.3759081615587e-21
 9.0617636105184e-22
 3.2848996485706e-19
 9.2174162543341e-19
 4.7687452831785e-17
 6.4421322413997e-19
 6.5289365748810e-20
 4.8756986610468e-18
-6.2676467629878e-17
-2.0555438221943e-22
 5.5234694235653e-17
-2.7318466910176e-20
 1.8362135740534e-18
-5.7881963363398e-22
-2.8951321439356e-23
 3.1922554199646e-18
 1.7240890842528e-24
-6.7423822601442e-19
 3.8497647452708e-18
 1.3671958801632e-17
-3.3203691532369e-18
-3.3014804605832e-24
 2.2204121679324e-17
-1.0141262897262e-15
-4.2114901653957e-17
 6.6248513565150e-15
-8.8058426110822e-15
 1.2581680251952e-12
-1.1738612824965e-12
-9.0761935036977e-21
 1.0006039508244e-13
 4.7052680219976e-19
 2.4466672091597e-24
-3.8624702394796e-19
 1.0975852930521e-17
 2.2981697924904e-17
-3.3576386029161e-18
-3.3855203273105e-24
 2.3388273739586e-17
 1.8147765598218e-16
-1.8116425379170e-16
-5.2537218553448e-19
 3.2024176977493e-16
 3.3267557816591e-16
-1.8004108810364e-17
-1.0563559643445e-18
 1.2756845581242e-18
 8.5063071969776e-17
-8.4648449342095e-17
-3.3570297979852e-20
-8.1105059060824e-20
 1.9458464380799e-17
-4.2380943773330e-23
-1.8939656700606e-18
 9.4012186815755e-18
 1.1997120555026e-16
-1.1849355657377e-16
 1.2689824099290e-17
-4.1896527760045e-23
-2.6224140046993e-18
 1.8564421104973e-17
 2.7176205079707e-17
-3.6659585957166e-18
-3.6187024832979e-24
 1.9801936240911e-17
-7.6391744225828e-17
 5.8767040001385e-17
-2.4500883279540e-16
 2.2014682760671e-16
-1.0128650576678e-15
 3.3493826786583e-17
 6.6250309274998e-15
-8.8052530761509e-15
 5.4527415107251e-19
-9.9568352372829e-17
 1.2520205751603e-20
 1.7100801111676e-19
 1.2577173562334e-12
-1.1733815636928e-12
-9.0729088401246e-21
 1.0002460285822e-13
-1.0137358075375e-15
-7.5660238631645e-17
 6.6249123428872e-15
-8.8047855139641e-15
-1.0140229517066e-15
 9.5233502446577e-18
 6.6247531006931e-15
-8.8046838700104e-15
 1.2587743745775e-12
-1.1743986605271e-12
-9.0472999945215e-21
 1.0011868788987e-13
-2.9402631181565e-19
 7.8159965207891e-19
 1.2976412403038e-18
-1.2340211250311e-18
-6.8609245211125e-17
 6.8825662129148e-17
 3.9636695008528e-17
-3.9554321054408e-17
 1.0849510190941e-17
 3.8334858308158e-20
 7.3472663548798e-20
 7.0354937102024e-18
-4.8730864246724e-20
-8.0461512544258e-20
-1.4999894704690e-18
 1.7814161671942e-18
 1.3507719113159e-16
-1.3433815488511e-16
 1.4757330938376e-16
-1.5198021005008e-16
 9.8234646057818e-19
-4.5164061445395e-21
 1.8315266363538e-16
-1.8134869521596e-16
 1.6781416751002e-17
-3.6625704639276e-18
-2.8211532119782e-24
 1.2361810590466e-17
-1.2480196679735e-17
 1.0995501447920e-16
 1.5061304593366e-20
-2.9632124170712e-18
 4.1865242927919e-15
-4.1970524888098e-15
-7.0787178676752e-17
 6.3531573859911e-17
-4.5939840392940e-16
 4.4512380765558e-16
-9.0617642722629e-17
 8.5582263461774e-17
-1.7087195644961e-16
 1.5929238078593e-16
 1.2590395992280e-12
-1.1745783077448e-12
-9.0922270487427e-21
 1.0017435828329e-13
-2.5812667323085e-19
-1.8168453054466e-17
 1.2216134158428e-19
-2.4057307345186e-19
-2.6724551230363e-20
-7.3471422777879e-20
 1.8255048938433e-20
-7.2456157837643e-18
 2.3108117592281e-19
-1.4975277809660e-19
-4.6598624238134e-17
 1.4419412438024e-20
 5.4699799546907e-20
-3.0652831959377e-20
 2.4034559878341e-20
-1.1980883992218e-19
-1.8094741335720e-19
 3.7581793078489e-19
-4.1534889225880e-19
 5.8807764584483e-19
 2.5450693087032e-19
-1.1985516203648e-19
 3.2800027393443e-19
-3.5087760813581e-17
 1.5630404854802e-20
 3.9826430388713e-19
 4.9454468611696e-17
-6.6210461139390e-17
-1.2652554649611e-20
-9.0360151324109e-18
-2.0719739452653e-17
 4.1203520672491e-20
 2.9772504992468e-20
-1.8618598126372e-17
-1.1087198058416e-19
 1.2208644296475e-19
 5.7357683056272e-17
-5.7249262839024e-17
 9.8855309449918e-17
-1.0534191422977e-16
 1.3056086439639e-18
-2.1870655395902e-21
 2.0100197717463e-16
-1.9895194568404e-16
-2.2234614865425e-18
-1.2468324983583e-18
-7.3841058792657e-25
-3.3940610196480e-18
 3.4176172706089e-16
-3.3661662394614e-16
 1.1908753842803e-18
-4.3642049118298e-20
 1.7852871077632e-16
-1.7656846477813e-16
 3.9847330926687e-16
-3.9292783750075e-16
 9.3996172599096e-19
 1.0384721871522e-16
-5.6711502796636e-21
 1.0458673141774e-18
 4.4763823554741e-15
-4.4889489362796e-15
-9.9096925598122e-17
 8.8745627117303e-17
-5.0840987430968e-16
 4.8958954337552e-16
 1.2770663907337e-12
-1.1913373120041e-12
-9.2338343297377e-21
 1.0491157977619e-13
-1.2183377806171e-19
-1.7216068730036e-17
 2.6492940658848e-20
-1.6006275725146e-19
-4.0695506044931e-17
-5.7273985613172e-20
 2.0342025623904e-20
-1.7018786153942e-19
-3.6819463425960e-20
-1.4394266147403e-19
-3.4140721730269e-19
 3.7608262858091e-19
 8.1934224906847e-19
-2.0863515023643e-17
-4.9458783185771e-20
 5.4597229150950e-19
 9.6368526595898e-19
-9.5751780731178e-19
-1.7983832959189e-18
-4.5423068238798e-17
 3.3523975865549e-20
-3.4794525286431e-19
 2.1472285212896e-19
-3.3594160486163e-17
-1.8800160962105e-20
 1.2950505106253e-19
 1.3351356831096e-19
 2.3405075432188e-20
 9.1634777091049e-17
 7.8456426739430e-19
-1.9503822995125e-16
 1.9543485312880e-16
 2.2729282106622e-16
-2.2685871668075e-16
 1.5630073982557e-19
 1.8127001379610e-19
 1.3203888394979e-16
-1.3014195366441e-16
 2.4037524493656e-17
-4.2920961612138e-23
-1.4568966692774e-18
 1.8094317819246e-17
 2.1296261178545e-19
-2.1145767246620e-17
 1.3797372617384e-20
 4.8443005393556e-19
-1.0189967291729e-15
 5.2288296746074e-17
 6.6508281629414e-15
-8.8895836763796e-15
-8.8633974278221e-19
 1.3563379765705e-18
 3.4543062380214e-20
-4.3278089648774e-20
-2.9841318664614e-19
 3.5224659204958e-19
-7.5320886958165e-18
-3.5881974142820e-17
-2.6410636187899e-20
-9.3629967334209e-18
-2.5210806573488e-17
-1.3641862662224e-20
 1.2327717514339e-16
-1.7872395187066e-17
-9.4490969142786e-24
 1.1875761909508e-16
 7.9390111157188e-16
-7.8410390498746e-16
-1.3261359580450e-20
-5.8028821009351e-18
 1.2411150259644e-18
 4.9452871705116e-25
-5.9631119486703e-19
-5.7318719540698e-18
-7.8262456194508e-17
 7.8349912346312e-17
 4.7325980694364e-19
-8.6079723264718e-20
-5.2668243962476e-20
-1.1217619625597e-17
 3.8215744299950e-21
 2.9452295105543e-18
 1.2759821436684e-12
-1.1902881481965e-12
-9.2294152810274e-21
 1.0486840820094e-13
-1.0205425643017e-15
-6.8791145536548e-17
 6.6507942816235e-15
-8.8915962266622e-15
 3.9284609882134e-16
-4.1441994857857e-16
 9.7659384955179e-17
-1.2019691336092e-16
-6.2070058214093e-17
 5.5114005275559e-17
-4.6699315015041e-15
-4.5917615307195e-15
 5.0032873000662e-17
-4.7132552779924e-17
-9.0870753372625e-20
 3.6526403261100e-17
-2.2818273505643e-19
 1.1374927457818e-16
-1.7827396561743e-20
 3.3121635215603e-19
 2.7270490434648e-19
-4.0666488549042e-17
 2.3190835653537e-20
 6.8293685733603e-19
 2.3674901748003e-19
-6.3029508315316e-20
 1.6917497887935e-19
-1.8775345543729e-19
-3.0413776762350e-20
 6.0218748593860e-22
 1.7914746834429e-17
-1.7927875845111e-17
 2.1687352172160e-19
 3.1686564947559e-17
 2.7634449904172e-20
 3.6984734112349e-19
-5.3987894824519e-18
-5.7304399389934e-17
-6.8953775862420e-21
-1.2102644978386e-18
 2.2054564943033e-17
 1.6541228316535e-17
 5.7249170194795e-21
 9.9330781344615e-18
-1.4809746561379e-17
 2.2747053254902e-20
 3.3615958349665e-19
-2.3347999969922e-19
 1.7311235859510e-20
-5.0160232345216e-20
-5.2092526256139e-19
 5.1333505326061e-19
-1.0203438291964e-19
 3.4784599119080e-20
-1.1576558108802e-19
 1.7609186316151e-19
-3.1858840371981e-24
 6.8685057968626e-18
-1.6903932125889e-19
-5.3303518672917e-20
-1.4644405564639e-20
 7.0962170389699e-20
-1.9243302295765e-19
 1.6387109679165e-19
-3.2266661334468e-20
-4.6820235850404e-17
-5.0712788994401e-20
 8.4731418866257e-20
-1.7464654702081e-16
 1.7452033911167e-16
-6.6513923927634e-19
 1.1813462636237e-18
 8.4570945827422e-21
-9.5817227261243e-18
 5.9620785684746e-16
-6.2768476583773e-16
 1.3187434118234e-16
-1.6568284732627e-16
-9.8896152319844e-17
 8.5302094079580e-17
-6.1201877501124e-15
-5.6882699801979e-15
 7.6332226926393e-21
 2.7575093077776e-17
 3.2518124240685e-19
-3.3143141911530e-19
-1.3087444856661e-20
-2.3938524209223e-19
 6.2316478627295e-20
 3.1542051117872e-20
 7.2568555139277e-20
 2.4668180227556e-20
-3.3114223677315e-18
 3.6270016975878e-18
 9.6264447422504e-17
-9.5621125899064e-17
-6.2270156512992e-21
 5.9107150199487e-18
-1.7018662076850e-19
 1.8073234639794e-19
 2.3216033642947e-19
-6.6075187330736e-20
 3.3888941186697e-17
-6.1663998560113e-18
-5.1797326379350e-24
 2.8259136702772e-17
 6.8927306082819e-20
 7.6662702124721e-18
-2.0873602325777e-16
 2.0958496202916e-16
 4.7944394155198e-16
-4.7923684199638e-16
-1.6683624812008e-16
 1.6567577989512e-16
 1.5733685699643e-15
-1.5791184413685e-15
 1.8242178008101e-18
 8.4140811908894e-21
 2.7251188671363e-16
-2.7236069133254e-16
 5.7648532994536e-19
-3.5247158517620e-19
-2.8345110546918e-17
 2.8360145381732e-17
-1.9123754017736e-19
 3.4220131069074e-19
 2.1619192489686e-20
 3.5016838347860e-18
-8.0743167542832e-20
 4.7396423395329e-18
 7.2689985253200e-19
-5.2909118956852e-19
 6.0105881453639e-17
-6.0103552113034e-17
-1.8964273595636e-18
 2.1094958504674e-18
 1.1326439867390e-16
-1.1344460493343e-16
 9.1895464715456e-19
-2.7176231549487e-17
 3.2001963538451e-20
 8.6561473253469e-19
 1.2569253999095e-12
-1.1727849678948e-12
-9.0285939581375e-21
 9.9643831055242e-14
-2.4235233894946e-19
 2.4461715946663e-19
 1.6830544661943e-18
-1.8624136927754e-18
 1.7815178111479e-16
-1.7793578771324e-16
-1.4923661739437e-19
 3.7245626877548e-19
 1.6808310047077e-18
-1.4579554604615e-18
 5.4104229505868e-20
-1.3091952990999e-19
-8.5566871284935e-20
-6.2154351227234e-20
 4.3585800836644e-20
-2.9977025398922e-19
 4.0165243567615e-19
-3.2023139362133e-19
-2.0336731667984e-19
 4.7549650331998e-19
 2.3316567106645e-20
 2.8451704349374e-19
-5.5107301803875e-18
 5.4021379095715e-18
-4.7795943359386e-20
 3.2291355984476e-17
-1.2591541807629e-18
 1.2255640304484e-18
-8.8534795322776e-20
 4.7173365871348e-19
-1.6088332041911e-19
-4.0048776537367e-20
-2.1267680434020e-17
 3.5840081580698e-20
-3.1191988282640e-19
 4.2933982513952e-19
 6.9852424879898e-19
-6.9086124760429e-19
-5.9186850705868e-17
 5.9243178396860e-17
-2.4547411858124e-20
 9.4931052127403e-19
 3.7558962893583e-20
-1.3256106983560e-19
 1.8839865631508e-20
 6.3047706288792e-20
-4.4397099581436e-19
 6.3582809427052e-19
 7.1417003921317e-18
 9.2447773210458e-22
-4.8763951471226e-20
-3.9914607842011e-18
 3.2718301948922e-20
 5.6165977182657e-20
-2.5241726584785e-20
 1.5340258020059e-17
 6.2072956654959e-19
 4.4833189200374e-22
 9.1570190828821e-17
-9.0670006564126e-17
 2.6258021364883e-19
-2.7963998660213e-19
 3.2075443646626e-17
-3.2234897598946e-17
 1.3353474413464e-16
-2.1809404325904e-17
-1.0843984876452e-23
 1.0855002504772e-16
 2.8719710867841e-19
-1.9095216286603e-19
-1.8976094999206e-16
 1.8833057604194e-16
 1.6795581259463e-15
-1.6857368077800e-15
 2.0657677745654e-18
-1.5919918069196e-20
 3.0678389855072e-16
-3.0665218492742e-16
 5.4665388833424e-19
-4.4040419301303e-19
 1.4289657578417e-17
 2.4318126624915e-24
-1.6263032587283e-18
 1.6893225100040e-17
 2.6244786475083e-20
-8.3111799226878e-18
 5.4445160267138e-18
 7.6466898179631e-25
-6.9117888495951e-19
 4.7637132953582e-18
-2.1078216369076e-20
 1.1951932670779e-20
 3.4119215034342e-19
-9.9327847955368e-21
 3.2006616429397e-20
 1.9199125060791e-17
 1.6069538498394e-18
-1.3308078741447e-18
 1.7943291844751e-16
-1.7978634294475e-16
 1.0606440686400e-19
-1.7565345743686e-19
 4.7507113396178e-17
-4.7262956149132e-17
 3.3739704569303e-19
 4.1959563752365e-20
 5.0877245735066e-17
-5.0785766176763e-17
-3.7127836358320e-19
 2.5491721245414e-19
 4.0548889935717e-19
-3.4958968792206e-19
 1.7943223023324e-16
-1.8226567455581e-16
 1.5660183356854e-18
-1.0230569816056e-20
 2.4964644406073e-16
-2.4715383785520e-16
 1.2772155701763e-16
-2.0196653594332e-17
-1.3708870762078e-23
 1.1476978797940e-16
-2.6714625063013e-20
-8.4153745704952e-17
 4.5174814793359e-20
-5.7540337770414e-20
 8.1620558018567e-19
-1.3401642794894e-17
 6.0394110883722e-20
 8.4704949086655e-19
 2.2025338170450e-19
 6.8944977142245e-17
-2.4679760756132e-20
 7.0823204046790e-20
 1.2619456168041e-12
-1.1773722730264e-12
-9.0734377094360e-21
 1.0059565214247e-13
-1.0241560068547e-15
-2.9494984242595e-17
 6.6830492962550e-15
-8.8905730108620e-15
-1.3266653536371e-19
 1.0944261248567e-19
 1.5683873809597e-18
-1.4954366683775e-18
-1.0223780846984e-15
 4.7166764970060e-18
 6.6829137709834e-15
-8.8916097791894e-15
 1.0640851399882e-19
-3.5309322795014e-17
-1.6063847495780e-20
 3.2056226586635e-19
 4.5649947337209e-19
 8.0651036166206e-18
-6.1211365328924e-20
 2.5812005578595e-19
 1.2596817476108e-12
-1.1754762812536e-12
-9.0441085650382e-21
 1.0027007300633e-13
 2.9054435418706e-14
-2.9115783050461e-14
-3.0825000670330e-16
 2.7576672992746e-16
-1.9923698285870e-15
 1.9316203079726e-15
 1.0603520010919e-15
 3.1461683705394e-15
-5.0742567496453e-19
 3.5971341776671e-15
-2.8294461364804e-13
 2.8800718261356e-13
 3.8397381780461e-15
-2.8179589721113e-15
 2.5225699960417e-20
 1.0261909108662e-15
 1.0242176946760e-15
-7.1925008622711e-20
 7.0626196202656e-11
-6.9140707413202e-11
 7.5440547255515e-21
 1.4204343200242e-12
 1.8399748277732e-12
-4.4359805271340e-13
-1.0235851066482e-15
-1.8902494824111e-14
 6.6830221912007e-15
-8.8902341976831e-15
-8.5770101289634e-18
 1.2596627314035e-17
-4.0399501117090e-20
 6.2952084209981e-19
-5.1743786909887e-19
 9.8106350344811e-19
 1.0923945692722e-16
-1.1135298941908e-16
-1.5339237279183e-20
-2.8697211555180e-19
-4.6637528196703e-17
 3.2776449437263e-17
-3.8479992109714e-16
 3.7135311424080e-16
 5.5276840742224e-19
-4.9544809969476e-19
 9.7561678381224e-17
-9.7852422440369e-17
-3.7355476462895e-21
-4.3559513036777e-18
 7.5735002524130e-20
-5.1684726214151e-20
 1.6514764327198e-19
 1.9049555916790e-20
-7.8426855032531e-20
 2.6376225474417e-19
-2.0985055152588e-21
-1.0143103738085e-18
 5.2241418766399e-20
-4.6437919588727e-21
-4.9671699475442e-19
-5.5727157867697e-21
-3.5172443428791e-20
 1.0313602205944e-17
-1.3390399756008e-20
-6.4451224993141e-20
-9.6254044799121e-20
-4.0106679180246e-20
-4.5457214254484e-19
 5.8283807704976e-19
 4.4601578628859e-21
 3.7139086014651e-19
-2.2909424838679e-16
 2.3026611846932e-16
 5.6044654933086e-16
-5.6026782537899e-16
 4.6167107273622e-17
-4.5819612007011e-17
 1.4811620456339e-15
-3.4634330180281e-16
 6.8115345593537e-19
-7.4128604539662e-17
-8.2982759051320e-21
 6.3296853089293e-19
 6.1239820341996e-19
-6.4176589449245e-17
 5.5189490469538e-21
-9.5931841406919e-18
-2.4044669216566e-15
-2.6224229514848e-15
 1.1645776582461e-18
-9.1785946002354e-19
 9.9910288985723e-17
-1.0003543810368e-16
 2.8815250228591e-20
-2.2072192989067e-17
-2.6015134667258e-17
 2.5987182579999e-17
-1.6867867051181e-19
 2.3166351107405e-19
 2.3221937644569e-19
-9.9896948216804e-20
 1.0728201672568e-19
 4.4882820037127e-21
 1.7913052768534e-17
-1.7910299911455e-17
 9.4894159872083e-20
 4.3009619909164e-18
 2.0363180271762e-16
-2.0362375590462e-16
-4.6052122551032e-19
 6.7407940733681e-19
 2.2319318160151e-18
-2.0645369298139e-18
 2.7555040565367e-19
-1.8993562406765e-17
-1.4611318340137e-20
 4.2302347398207e-19
 1.1487884347136e-19
 8.5937448199359e-20
 2.4770419751268e-19
-8.2532772798091e-20
-8.9517485890489e-20
-8.5891126085056e-20
 3.1884503891469e-20
-1.4677327353018e-19
 4.0996725519353e-20
-1.0617855778853e-19
 1.9285292697845e-20
 7.2154090089503e-18
-8.1841973589033e-20
 2.0311477843883e-17
 9.1218502749121e-16
-9.0926085799905e-16
 2.0351951791255e-20
 1.1626188945555e-19
 1.2622239340429e-15
-1.2284566479632e-15
 4.8239717486215e-18
-9.0559733462305e-21
 1.4770986168277e-15
-9.2385460040553e-17
 5.3096170301385e-16
-4.5460813482765e-16
 1.7459599821210e-14
-1.7441096809994e-14
 3.2975585559673e-16
-3.2894355100031e-16
 2.6521925067512e-18
-2.5473986493081e-18
 2.6152989279424e-17
 2.6792590753229e-24
-4.5367084654940e-18
 1.9595260201781e-17
-3.8808005618538e-20
 5.6116242948327e-20
 8.7363507575401e-20
 3.6323155058429e-20
 1.2844460551723e-19
-2.0539390918059e-19
-4.1416933270530e-21
-1.1979064194870e-19
 1.1201183546826e-19
 1.1253130489294e-19
 7.7111724877972e-16
-7.8000913596220e-16
 8.8966610072308e-17
-9.8687438107684e-17
-6.6115584449573e-15
 6.5809178751233e-15
-1.0188376987371e-17
-7.2307602817074e-17
-7.5266818297425e-20
 1.3957395669967e-17
-3.6086796470198e-18
 5.7759722612475e-18
 2.9687512184528e-20
-1.4646570296302e-17
 1.1973678421902e-17
-4.3084219192707e-20
-3.4235351192345e-19
 1.9848033362087e-19
 3.1545359840322e-20
-1.8954347428285e-19
 2.1295731782953e-18
-2.2884845001341e-18
-1.2722603612605e-17
-2.5870203524952e-17
 3.6594470299346e-21
-1.2657448250115e-17
-3.2482868252014e-19
 3.1860267499521e-19
 4.1503158577583e-18
-4.0882045199229e-18
 3.9843635745454e-20
 2.8825589986248e-20
-1.0167461626321e-15
 7.1874742511247e-17
 6.6387799662997e-15
-8.8996803091108e-15
 5.2265320977379e-17
-5.5158785525200e-18
-5.8181370116278e-24
 4.8583480513902e-17
 1.0328520706076e-15
-1.0299971460589e-15
 1.2715225702583e-12
-1.1865475321168e-12
-9.1071308668741e-21
 1.0349019411620e-13
 5.2416516358464e-18
-8.6929747297068e-17
-2.1837568171400e-21
 1.0097532703778e-17
-4.0160859510368e-19
 1.3767097806965e-19
-4.8366904777201e-20
-1.4475660719678e-19
 4.5329497567906e-18
-4.9510002209300e-18
 1.1487901287795e-15
-1.1390793195557e-15
 8.2861011300042e-17
-9.2009324472413e-17
-6.1398961950917e-15
 6.1113901482848e-15
-4.4826571755474e-20
 3.6568000519744e-20
-1.6219026578695e-19
 1.8000773618134e-19
 9.9139250775705e-20
-8.4893546266317e-20
-2.1210151676779e-19
 2.8074509990050e-21
-1.2698876763914e-20
 3.2858922653057e-20
 1.2238765819988e-18
-1.0990980409564e-18
 6.3156463995730e-18
 1.4891289198984e-17
-5.0157854200955e-20
 1.4754281619765e-17
-1.4974175177904e-17
-4.7659975546198e-20
-1.6125555169476e-19
 6.0855995613074e-17
-1.5310716091662e-18
 1.5114177978120e-18
-7.1222235974286e-19
 4.4873501847527e-17
 2.3002238473875e-20
-2.8208182377038e-19
-5.9779350252472e-19
 5.1101729318424e-19
-3.1499037726019e-21
-2.5660730788171e-18
-6.5605131690613e-15
-6.4048101896510e-15
-4.0269883900336e-16
 3.8702184733646e-16
 6.7732857278292e-20
 3.0536702418820e-17
-5.5278825975694e-20
-3.3351922298138e-21
 2.0439139936540e-17
 3.6673879638151e-20
 1.9557444812898e-20
 1.4390171603371e-19
 4.9895534549199e-21
 5.2297667048053e-20
 1.2155915409834e-19
-7.5703569660853e-21
 8.2056316765260e-21
-4.6940547616139e-18
-4.8549298102269e-20
-1.0799159836301e-17
 4.5049290135404e-20
-1.4786892388235e-17
 2.8264761530937e-21
 2.6296898853673e-20
 4.4617460496620e-19
-5.1610776267389e-19
 1.5948042210022e-20
-2.5133446161060e-17
 3.3014432608216e-20
-1.3440030592762e-20
 1.0053025837329e-19
 1.3716143481232e-19
 6.7828810229348e-20
 8.4799247676486e-20
-2.8219101161124e-19
 5.2595121196327e-19
 8.5039440246856e-20
-1.5481470985512e-19
 1.1619406064532e-20
 1.0389388493666e-20
-5.1027117627171e-20
 1.2767532754756e-18
-4.5891980384442e-20
 5.4391856748465e-18
 6.0591807050122e-20
-1.2771245141345e-17
 3.3666664521215e-20
 6.9450084229952e-20
 7.6960884191934e-21
 5.1113144410877e-20
-8.7576092992827e-20
 1.0072743755181e-19
-1.1921326988114e-20
 4.9443559753777e-17
 1.3686199543057e-19
-3.8720324473607e-20
-1.3160195391535e-19
-2.3500283920693e-19
 5.9219514413896e-20
-6.3262773248056e-20
-1.8304514339063e-19
 1.0845992191795e-19
-2.0792880085904e-16
 2.0785595602557e-16
-1.4458323014039e-18
 2.1462226696648e-18
-2.1678749493790e-18
 2.4507773363170e-18
 1.4177002196432e-16
-1.4204954283691e-16
 2.5278639519620e-21
 3.1059473948509e-18
 1.1302595889925e-20
 1.4570141289244e-17
 4.7837509185167e-20
-4.8464472384813e-17
 8.5934139476909e-20
-1.0550192404746e-19
 4.1606840704282e-16
-4.4046597347862e-16
 9.9563111356467e-17
-1.2482671604127e-16
-7.8610259172307e-17
 7.4400521968066e-17
-4.9251604750224e-15
-4.8133165506010e-15
-3.0808341914537e-20
-6.4636819507180e-18
 1.5466953965761e-19
-7.9028835723316e-21
-4.8771958579556e-18
-2.6070747674201e-19
-3.2575696011318e-19
 3.7341751882171e-17
 5.0828594280158e-20
-2.7904110783864e-19
 9.6032360394956e-20
-7.6327263842718e-20
 1.5487190112267e-17
 5.1054460909500e-17
-2.6694772728311e-20
-2.0767553800781e-17
 6.1288293125892e-20
-1.6432770048978e-20
 4.9743333316489e-20
 7.8049453878054e-20
 3.0395578788874e-20
-5.3138082550406e-20
-6.3825256064592e-20
-2.8925918722745e-17
 1.9328894809649e-19
-1.1350572365453e-19
 5.9781997230432e-20
-3.9522171852720e-17
 1.9447988138341e-19
-4.8294526473602e-20
 8.2695276069022e-16
-8.3951976501215e-16
-2.7240579583698e-16
 3.5414108711523e-16
 2.4379234525237e-15
-3.5031520869908e-15
-2.3085597103796e-16
 2.7488336720770e-16
 1.3976043629696e-19
 7.6140321024281e-18
 6.3561352361963e-18
-6.5458706163812e-18
-4.6926573954789e-15
 3.8226359740361e-15
 4.0915793638825e-15
-4.4711216455969e-15
 6.3266500193023e-16
-6.9475844619461e-16
-2.2171934427329e-16
 2.5322219364757e-16
 2.5711109131500e-15
-3.7770486608149e-15
-3.0502810513018e-16
 3.7175725483576e-16
-1.0278744814931e-17
-8.4279778251803e-20
-6.2266344864729e-17
-3.3097812413962e-19
 4.1926013306720e-17
-3.9734421434818e-17
-2.1369582468042e-18
-1.5484821066993e-19
 3.3822025583864e-18
-1.4729797073634e-17
-5.4805413967517e-18
 3.4240777497163e-18
 1.4624506643125e-15
-1.6736151310301e-15
-4.0290985608635e-16
 4.6474326123591e-16
 7.3297996090651e-18
-2.2848713752185e-19
 1.9278054833364e-15
-2.2428043309260e-15
-4.2607112499607e-16
 5.9781552538135e-16
 2.8409823864088e-15
-4.1974887107776e-15
-2.8588606049474e-16
 3.2284830191187e-16
 5.2939559203394e-22
-4.4446813136251e-19
-1.8168062625217e-18
 1.2361387073992e-20
 6.1536943618025e-19
 8.1264870355170e-18
-6.6068569885835e-18
-4.5028271476039e-18
-7.7213935284926e-18
 2.8561421585823e-18
-5.4202697085987e-18
-9.0119276329733e-18
-4.7300589822979e-15
 3.8633680944037e-15
 4.1316487868480e-15
-4.4940417218749e-15
 1.5373647992666e-18
 3.2081108179461e-18
 1.2024479719222e-17
-1.0936889414947e-17
 1.0393094262810e-18
-6.5708580883252e-18
-9.8526872424620e-18
-8.5516446354794e-18
-4.3347554820779e-15
 3.5269333840179e-15
 3.7832242986240e-15
-4.1236259554694e-15
 1.3081365079159e-19
-7.1627752997784e-18
 1.3986419783300e-17
 1.3724580723480e-19
-6.5204596279636e-18
 1.1382322866085e-17
-1.7531464425796e-18
-2.2096972011497e-19
-6.8409821891606e-18
 6.8433298104570e-17
-1.6030727184053e-18
 2.3254164601234e-17
-1.1001892576204e-17
-5.1076748463924e-20
-3.1283361961825e-17
 8.4862113403040e-20
 3.4921897865874e-17
-3.4000855414853e-17
-1.1957987632863e-18
 1.0237981354344e-18
-4.8457696121235e-18
-5.2864782076019e-19
 4.2945205700503e-17
-5.4814678390378e-18
 2.6179213419471e-15
-3.7296148157687e-15
-3.6626975188697e-16
 3.9888772013631e-16
 1.3701419666328e-17
-3.6141042974769e-18
-3.2270631801409e-18
 1.2453846014141e-17
-9.4208274943044e-17
-3.7438856268640e-19
 5.1567829049985e-18
-1.3964142816787e-16
-1.6191003023030e-16
-2.0120685326875e-17
 7.3572752402917e-20
 4.3929783894374e-18
 1.6545729833429e-18
 1.1315830779725e-19
-3.8579674123320e-15
 3.1561193003689e-15
 3.3864739602510e-15
-3.6771294779832e-15
 1.5827366484818e-17
-2.3267995061076e-18
 5.5598448564384e-19
-9.3646457179721e-18
-2.0244994029329e-17
-2.1526415912182e-18
 2.6217962662179e-17
-1.2065329206592e-17
 3.9867293110973e-18
 3.7270640819271e-18
 1.8841930274317e-17
 1.2860871815076e-17
-9.6594578513696e-18
 1.9010595709939e-19
-4.7652055291832e-18
 1.0932614545542e-18
-2.1019122586116e-18
 1.7063875769132e-17
 8.1298230549274e-18
-3.5928383111088e-20
 1.0899646435048e-17
-1.4553084825013e-19
-6.2313947648491e-19
-2.4439944552941e-18
 3.8594262148254e-18
 3.7840138127402e-18
-6.7511702269720e-18
-6.5215978284865e-18
-3.4896169240101e-18
 3.9592437537034e-18
-1.3079690865599e-17
-7.7179570893558e-17
 3.7057889965723e-18
 1.8996434377852e-18
-1.1401976677439e-17
 7.8115628327058e-20
 2.2588251120904e-18
-3.3881317890172e-21
-7.9649419706078e-18
 1.1443084245161e-18
-1.2004468565843e-17
-5.7798087249285e-19
-2.9488181509238e-17
-1.4024324507690e-17
 1.0340103881630e-15
-1.7289500994083e-15
-1.2687513287531e-16
 1.6444572923703e-16
 9.5057478412226e-18
-2.9461526441179e-19
-2.6030381260309e-18
-4.3798220817948e-19
 4.2142218466506e-17
-4.5409436302303e-18
-2.5511573580116e-18
-4.2539582797887e-19
 1.0478274013568e-17
-1.3616901660060e-17
-1.8183150399590e-18
 1.0466660397768e-17
-7.6263034922515e-17
-3.4389537658525e-19
-1.7854746461516e-17
-1.4426855740048e-16
-1.7627295615866e-16
-6.8630844551280e-19
-3.7389897764289e-15
 3.0354340460441e-15
 3.2573661544058e-15
-3.5729281200867e-15
-2.2511478006711e-17
-3.9140790305135e-17
-2.5893995720911e-18
 1.8732500896721e-17
-9.3896249181099e-19
 1.5854603888028e-17
-1.2836122571149e-18
 1.2939090013799e-19
 1.6756546738705e-17
-4.4100968922142e-18
-1.5056804730833e-18
 6.5374267566883e-18
-4.4218775984982e-18
 5.2304549190749e-18
 5.5932497182958e-18
-7.7351578138855e-18
 9.0751109968826e-18
-6.9165534099234e-20
-1.1520045129352e-17
-1.0775450229157e-17
 8.3138401355378e-18
 1.4815135643070e-19
-1.5116441144276e-17
-2.7055291126486e-18
 8.8875726084045e-18
-2.9869015463257e-17
-1.8157302659809e-17
-1.8843174353958e-19
-8.7538737516364e-18
-2.1334642358968e-19
-7.8207187294700e-17
-3.0344955335385e-19
-2.3666524062759e-17
-7.9624432234134e-17
 7.9554029237838e-18
-8.5004388468399e-20
-1.5286827115572e-18
-1.2726670032496e-19
 9.7139220698781e-16
-1.1157304328482e-15
-1.5340105487954e-16
 1.7508509832925e-16
-2.2227468024933e-18
-1.0497385194441e-17
 1.1303204694855e-17
-9.6478289327281e-18
-2.3464930221312e-18
-9.3983731802683e-18
-6.8779075317049e-19
 1.6398557858843e-18
-1.7810687513369e-19
-1.7318916231497e-17
 6.3568896249149e-18
-1.0283509375259e-19
 9.1303600443562e-18
-6.6796488824882e-19
-2.4101230635712e-18
-1.8869764901929e-17
-1.2366860528106e-17
-2.0541740110999e-17
 1.5590308101789e-17
-7.0179128134632e-18
 1.2232544892386e-14
-1.4134282936770e-14
-1.7763925206632e-15
 2.1435193640136e-15
-9.9018151534028e-19
-8.0785767344379e-19
 7.1407524431498e-18
-2.2235541307711e-18
 6.1879949610015e-16
-7.6384584150446e-16
-1.9445843589885e-16
 2.5716597904998e-16
-6.0059929916250e-18
-4.8704394467122e-21
 3.1390434701855e-17
-2.4301375256726e-17
-2.5436928801639e-18
-9.8541232280054e-18
 2.0736425339969e-19
 1.7518308945334e-17
-3.5957395643892e-15
 2.9177845578023e-15
 3.1345579972872e-15
-3.4203205233205e-15
 5.7619416236974e-18
 2.2325406209459e-18
 1.1119848531554e-17
 6.6509027018408e-18
 6.8620173921378e-19
 1.5927660479729e-18
-2.0022622238076e-18
 6.8396587001805e-19
 4.6153369458009e-20
-7.5664171048277e-18
-1.1165720659604e-17
 7.6378549040696e-20
-3.2417539078198e-19
-1.1979957549932e-18
-8.8492708373209e-18
 1.6394507982564e-17
 5.0879614780341e-18
 4.1745886456530e-18
-2.9255459206980e-18
 6.0027636785136e-18
 1.8113270181441e-18
 5.5343015191228e-18
 3.2256907220685e-17
-1.4028941829869e-17
 1.4820720766566e-17
 1.5040994000605e-17
 7.2827462671006e-18
 2.9244143376200e-20
 4.3910823260373e-17
-3.2504889350884e-20
 1.2874900798265e-17
 1.7618285302889e-18
 3.3621690711310e-18
-2.5550211186528e-18
-1.1338952132207e-17
-1.0663853638356e-17
 8.5566738936037e-18
 1.6176476407985e-18
-7.5903681194642e-18
 7.3533312431310e-18
-6.3898411917966e-18
 1.4890722580264e-17
 2.6025431411523e-17
 1.1985721344440e-17
 1.2706632409337e-17
-4.8043973466060e-18
 2.8270055486857e-19
 5.2690375179765e-18
 2.2190542682389e-18
 2.1361112138569e-20
-1.5462685713801e-18
 6.8879660479536e-19
 8.3770549323103e-18
 7.1137532679560e-22
-9.0581934989946e-18
-1.1077840991327e-17
 9.0431404662074e-18
 1.1511521860321e-17
 1.0813897584028e-19
-3.4250732615835e-18
-8.6071451458593e-18
 4.6785335445999e-20
 1.2552806593905e-17
-5.9344187075820e-18
-1.7524317585303e-19
-1.7874777467230e-18
-7.7168920115991e-18
-3.0406060718198e-18
-5.7733448047498e-17
-5.0821976835258e-20
-2.6695732257822e-17
-3.6139719485789e-17
 2.7522218038660e-18
 9.8012829304755e-18
 8.2927834258646e-19
 7.3270996915457e-19
-1.0280672145758e-17
 6.9591697550821e-19
-7.0535345193622e-20
-7.8909506648149e-18
 9.5027832259072e-18
 9.5423555464117e-20
-5.7109409758498e-18
-1.0619966743776e-17
 2.8716890181952e-18
-7.7054835365907e-18
-6.5476308567247e-20
-2.0049681797454e-17
 4.1850475173181e-18
-7.6391783930497e-20
-5.8710550182992e-19
 1.6657432303348e-18
-3.7260555833243e-17
 5.6367395661814e-20
 2.9194261076540e-17
-1.4968448606523e-17
-1.1608665951459e-17
 1.8052164695231e-17
 3.2250316245564e-18
 3.9962749753662e-20
-1.8874000893846e-17
-5.1697762580605e-18
 4.2524035508140e-15
-5.5538798386656e-15
-5.5195927919937e-16
 6.2865387740851e-16
-5.7879349472662e-18
-5.7912436697165e-18
-5.6042187949627e-17
-2.9180285032911e-19
 4.1868838582780e-18
-1.1628661222970e-16
-1.9703214550909e-16
 1.6674637660089e-19
 3.7209310339934e-17
-2.2689196272393e-16
-6.8888130809008e-18
-8.1937202757053e-20
 1.1897001260660e-17
-3.0404247641693e-18
-3.2859319699751e-18
-3.1446098166816e-20
 1.3993619563352e-17
-3.8751757336884e-20
-5.7456991051893e-18
 1.8492635062693e-17
-5.5840911745536e-18
-8.0532319204693e-18
-3.9226691357388e-18
 1.2759492559202e-18
-8.6684293030821e-18
-1.2927178612979e-19
-8.4241661769176e-18
 8.5942080410789e-18
-1.1260244242562e-17
-1.5392838582877e-19
 4.7368199992829e-18
-8.3560859037821e-18
 3.0397365498997e-18
 7.6009030917457e-18
 6.2623792768471e-18
-9.6948214769175e-18
-5.2587024090746e-15
 4.2936100096320e-15
 4.5735972003332e-15
-4.9881317101179e-15
-1.1180669467634e-19
 4.4075202246061e-18
-9.2838516788216e-18
 1.7612991346969e-19
 6.9367763215391e-18
 1.0037340424963e-19
-1.9583881505275e-17
 8.5539739760844e-18
-5.8623150279470e-18
 5.1355607592028e-18
-6.4745080905751e-20
-1.0966217930746e-17
 2.0772217445074e-18
 6.9582433127961e-21
-3.1224000172345e-20
-2.2188160402224e-18
-2.0631340314951e-18
 1.1951105490166e-19
-1.0859227081596e-19
 9.9865035588772e-18
 1.0619526683691e-18
-9.0116364653977e-20
 8.2979483416094e-18
-1.4884420291177e-18
 4.2323589396337e-18
 8.6237234996961e-18
 1.9701920178686e-18
 1.0066413755543e-17
-4.3247914100028e-18
 2.0181830517755e-17
-1.2871691337489e-17
-2.5782888821033e-19
 1.1112423758376e-17
-2.0627078680435e-17
-1.0032046469043e-19
-1.3120540352969e-18
-1.7757728101831e-17
-2.3743392302722e-20
 1.5674768205415e-17
 1.7334952782033e-17
 2.8384868155880e-19
 1.2223744220064e-17
-2.1147368668286e-19
 1.3754226876634e-18
-2.1752864876675e-19
 8.4769469174434e-20
 1.0294755722868e-17
 6.0222520537454e-18
-2.0123094076818e-17
-9.3442160112032e-18
-2.1780711084816e-17
-1.5574818317638e-18
 1.2137876255036e-17
 4.5019666729716e-20
 4.9878316784748e-18
 2.5354508525404e-18
-8.8959635285383e-19
-2.0034976180524e-19
-8.7170278184308e-18
-4.9976002679188e-18
 1.4035865331596e-17
-1.0822169390154e-19
-3.1100508724336e-17
-1.5519020022238e-17
 1.5004538139306e-14
-1.7250144455222e-14
-2.0944024645012e-15
 2.5416655068046e-15
 1.0573923389340e-17
-8.5981288771824e-20
-1.9644949272049e-16
 1.8481200117905e-19
 3.5668133892405e-17
-2.8228685868318e-16
 9.3832192314463e-18
-7.0581667307925e-20
 1.2077842794899e-17
 4.9180850499953e-19
 3.8243272870736e-18
 0.0000000000000e+00
 9.6728579125952e-16
-1.1387832815407e-15
-9.2631523111730e-17
 1.6122763931217e-16
-1.4670081250852e-18
-1.2743769510119e-17
 6.0590257244526e-16
-6.7160225948257e-16
-1.6996224306426e-16
 2.5620374962190e-16
 3.7398647019064e-18
-7.4358160394536e-20
 2.6104119448834e-17
 2.1250269936487e-17
-1.9306630416282e-17
-1.7140294022842e-17
-1.5060669318655e-17
 2.1347877248768e-20
-2.0728590285207e-17
-1.2648319484875e-17
 4.6333496308198e-18
-1.5108950196649e-19
 2.3636454393131e-18
-1.5384235904506e-19
 5.6124403085070e-18
-2.0514079191315e-21
 3.2253320565549e-17
 4.4426878083488e-18
-3.3340310336699e-17
-6.3990692187102e-20
-4.2102308656312e-17
-3.3716967028625e-17
 8.0441924907353e-18
 4.8020895126970e-19
-9.2195301143894e-18
-5.3138082550406e-19
-3.0647769614029e-17
-5.1780182856839e-18
 1.3054166851222e-14
-1.6409914876600e-14
-2.6833130266289e-16
 3.6779822284029e-16
-1.1610439426692e-17
 4.8297024559052e-18
-4.2414728156228e-18
-1.8610538078484e-18
 9.9694719100647e-18
 2.7512424220208e-18
 5.7552315345684e-18
 3.4721931915873e-18
-4.6761413382684e-18
 4.2677713688377e-18
 7.0138695546290e-18
 8.4728176318256e-18
-4.1824487937662e-15
 3.4294771612386e-15
 3.6695957022526e-15
-3.9740033028093e-15
 1.0899196448795e-18
 4.7632897788846e-18
 6.7898161051905e-18
-7.5047119126731e-18
-1.1692528830682e-19
-6.8021700476390e-18
-8.6706924692380e-18
 2.0540548970917e-20
 1.5138596349803e-18
 1.7157181742228e-18
 2.3547515933669e-18
-1.3359403644095e-17
 5.6364748683853e-19
-1.0413793630459e-17
 1.6482731757977e-19
 2.9668259555771e-18
 7.7052469629356e-18
 2.5075881007872e-18
-2.7304107054742e-18
 3.2191884207094e-18
-5.8258926112151e-15
 4.7401149574477e-15
 5.0756107318115e-15
-5.5190151155237e-15
-1.5198820392352e-16
-4.1074745194729e-18
 7.0915021094784e-18
-2.6471791304947e-16
-2.5820221798183e-16
 6.7516996225640e-18
-8.9744384841234e-17
-1.3701287317430e-17
-1.8620704591433e-15
-2.0987908098520e-17
-1.7321929650469e-17
-2.7645541800616e-15
-3.9984865254519e-15
-6.3816521037323e-18
 1.0806411136263e-14
-1.0058684596443e-14
 7.0708812247263e-16
-7.7583143050000e-16
-8.5292698176030e-13
-1.1764398252768e-16
 2.4185423590970e-12
-3.0825600699999e-12
 1.5043481326089e-13
-1.9838627675307e-13
 1.5300288603627e-12
-1.4533300371532e-12
-1.3531734191280e-12
 1.5994201948109e-12
-4.0262850879896e-19
-8.4376335044706e-18
 2.7766765714956e-18
-3.7424628762104e-19
-4.9200169303159e-18
 3.7127174613830e-19
 8.3810998455057e-18
 2.7506071473103e-19
-9.0063094222529e-18
 1.0160424900111e-19
-9.8974807269930e-18
-9.5922643158507e-18
-8.3100020174955e-18
 4.4421054731976e-18
-5.1418076271888e-18
-1.6993598504289e-20
-1.1708959946370e-17
-8.7395800706515e-18
 2.0417993891361e-18
 3.3175898263787e-19
-3.5260589862816e-17
-1.2655201627571e-19
 1.3506492900619e-17
-1.3743080617880e-18
-2.4010978199848e-17
-1.5758461512612e-17
-7.7058441873378e-18
 2.5855680714937e-18
-4.9634228193693e-18
-9.3421778381739e-21
-2.8221390797060e-17
-7.7321402590109e-18
-3.4324693315945e-17
-3.9277447159774e-18
 6.9627721266498e-20
-9.8496953301864e-18
-4.2162878543076e-18
-7.8544521474667e-20
 5.7929112658314e-19
 3.6475885686730e-18
-1.0457482001691e-17
 1.0775744085069e-17
-1.0583703145722e-16
-3.1573153108904e-19
-4.3579845136234e-17
-1.4288559082563e-16
 2.0388083040411e-18
 7.6127086134480e-20
 3.7163570560782e-19
-9.0251360529946e-19
-5.2905148489912e-19
-4.4624342639317e-18
-1.0054439902586e-17
 6.6419294465558e-19
-8.5705308232252e-18
 6.7059333736327e-18
-1.7492183272867e-17
 3.0617726414181e-17
-6.8211563242389e-18
 7.9782562697475e-19
 3.1206811359217e-18
-1.7908129389528e-19
 3.8792414918352e-17
-4.0439470484288e-18
-1.0150174477961e-17
-1.3300005458669e-17
 5.8883612910751e-18
-3.8116482626444e-21
 1.0766554728849e-17
-1.0629628213331e-17
-4.0109127634859e-18
-2.3663982963917e-20
 7.5534163071402e-19
-1.5273062830179e-20
 1.3507210893391e-17
 2.1473344004081e-18
 2.5532617054899e-18
-2.7800415422274e-18
 9.6385996650435e-18
-1.3743109569201e-19
 6.5188350452405e-18
 2.5903326318221e-18
 5.9936051347714e-18
-4.0232212110007e-18
-1.0210452783559e-18
 9.7623723544610e-18
-2.8255113296272e-17
-2.1575037588588e-17
 7.1545167285426e-18
-2.9642248861409e-18
-4.0922279264223e-20
-4.8025444620339e-19
 2.9191303078670e-18
-4.3498119691714e-20
 1.4371446302254e-19
-9.1542415758212e-18
-7.1246555084295e-18
-2.7266768121892e-20
-3.4331256063528e-18
 1.3873282155018e-17
-1.0230124792886e-17
 1.0925811812184e-17
-6.4664612775761e-18
-1.0646145355803e-18
-1.0374982316118e-17
-4.3804176518358e-20
 1.1598263328075e-17
-3.1726942528390e-18
-3.1408934596255e-17
-1.9453832169369e-18
 3.8415061740351e-17
-3.8977068100854e-17
-6.2139395801760e-17
-1.1586907792626e-17
 2.0842516216613e-17
-5.4341610489337e-17
 4.9411666978080e-18
-3.0535537748517e-19
-3.2827291266432e-18
 3.9387032047325e-20
 2.5549690062742e-15
-3.0754715993949e-15
-3.8695175536008e-16
 4.7616804162848e-16
-8.9935046663705e-18
-3.0984117794705e-21
 9.0328122890791e-22
 3.0378423062969e-18
 1.0136612024637e-17
-1.6458205852814e-19
 1.0683016931607e-19
-9.5412715262190e-18
 2.9042118987244e-18
 1.0786435187691e-21
 8.5579123897759e-19
-1.9019383676767e-17
 1.3890705060260e-17
 4.7116207691021e-19
 7.0011508255304e-18
-2.8287300548268e-17
-1.1205465033676e-17
 1.3105187880800e-19
-3.6424110797829e-17
 2.1911789433403e-17
 1.2680678790438e-18
 3.9682170089884e-18
 2.7164697343025e-17
 1.6569694910136e-17
-5.2244545509114e-18
 1.9110416557539e-17
-1.1363145510763e-19
-7.3274801946275e-18
-5.0916341599538e-18
 1.4516027133571e-19
-1.0179139034290e-17
 3.1978008387912e-18
 3.5313059997022e-18
-8.3309048715747e-18
-9.0671700630021e-18
-1.5643639744603e-20
-9.1228095397248e-20
-1.9690065026147e-17
-7.7504962239840e-18
-1.3827481991681e-19
 7.7662333351379e-18
 1.4667434272892e-18
 1.1171517541337e-17
-7.8354253390167e-18
-1.0862350515589e-17
-3.3610267347051e-18
 3.8147585676267e-15
-4.9142141094263e-15
-5.1119687740394e-16
 5.6150618754788e-16
-1.3726168910256e-18
-1.2916193654444e-18
-5.5907223837394e-15
 4.5477774920488e-15
 4.8655511666341e-15
-5.3110202460948e-15
-9.5150652036424e-18
 1.5793988092740e-18
-3.1521113522207e-17
 1.7418014950423e-17
-5.0673084324998e-20
-9.2822287504597e-18
-4.4174753432782e-18
-6.7590582212933e-20
-1.3293606389450e-17
-5.8209096752051e-18
-1.6276002779287e-18
 1.4373937356669e-17
 1.1310430944687e-17
-1.2920428819180e-18
-3.0887056421628e-18
-2.0906890720604e-18
 1.0545498981951e-17
-3.1846453583292e-21
-3.3869348586708e-17
 1.6186270226438e-20
 3.0942465942141e-17
-3.7788852929423e-18
-2.2467548925920e-19
-2.0271835419821e-17
-4.1454983578708e-19
-8.1970289981555e-20
-1.5744036309910e-17
-2.7043280463992e-18
 1.7874162044854e-17
 6.7587074967136e-18
-2.2275676111033e-17
 1.4094227886895e-17
 4.7693927174440e-18
 8.4794499659770e-18
 4.4082425083772e-18
-3.9622861239964e-18
-8.4373018050450e-18
 8.5362723109757e-18
-1.2305800536829e-19
 2.4554806852800e-18
 1.1622880223105e-18
 1.1126571855573e-17
-2.6660924497646e-18
-1.4277137372665e-20
 5.8573122396023e-18
 2.9386749313804e-19
 1.6745143226781e-17
 1.0769229830950e-18
-4.0176890270640e-18
-9.0640466290091e-18
-1.0862059348013e-17
 6.6739975845432e-18
 1.0575590158274e-17
-1.1400997295594e-17
 1.0039947698254e-17
-1.5841660165803e-17
 1.6657018713042e-19
 2.8226479612188e-18
 8.5937580548257e-18
 9.5721340484636e-20
 1.8989244523967e-17
 5.8941846425875e-18
-3.1651503656525e-18
-1.0423163932438e-17
-4.8156398685039e-18
 1.9714680990598e-18
-8.5106454284182e-18
-6.2162817420804e-18
 1.8703794420743e-20
-6.6489455925115e-18
-6.0696528115671e-18
-1.6564788074742e-19
 3.7670069793461e-18
 4.1742180687386e-18
-2.6303160610910e-18
-1.1282396139366e-18
-4.9535090597279e-20
-6.2393023594735e-18
-5.9076370808894e-19
 2.3067999332573e-20
 2.0107313125092e-19
-4.3397302918656e-18
-3.3142062027240e-17
 1.2028446877440e-19
-1.6096635280900e-17
-1.7486933984700e-17
-9.8211617349564e-18
 1.1944911561739e-17
 1.6288125938345e-17
-5.8983403979849e-18
-1.1862365554051e-18
-1.3508402033473e-17
 3.3624064719668e-19
-1.9187053186931e-17
 4.1226814078541e-18
-9.1247947731950e-20
-1.6812753661328e-17
-1.9691861662437e-18
-5.6652607537022e-18
 9.0066072072734e-19
 2.1592582089380e-18
 6.3278572397755e-18
-2.3025234094904e-19
-1.1394975420734e-17
-9.8650387033687e-18
 1.0628939999061e-19
-1.9517505224201e-17
-5.6153122795938e-18
-1.1120060289791e-17
-1.0312626132821e-19
 9.9562535638761e-18
-4.7364176586329e-17
 8.0782590970827e-18
-4.6176530515160e-20
-4.1679314960832e-17
-6.3313595224891e-18
-1.0239490131782e-17
 1.5576777081329e-17
-1.0561336181959e-17
 1.9264599714997e-17
 1.0474356486187e-18
 9.5979156137957e-18
 7.0146487587661e-18
 1.5013245399776e-18
 8.3540609656425e-19
-1.3573438281954e-18
 3.3870051690229e-18
 6.3876872134815e-19
-9.8063915979387e-20
-5.8278166333199e-18
-6.4807284887815e-18
-1.3078718101198e-19
 1.7155497602501e-17
-3.3758048126567e-17
-1.0441838361947e-17
-1.6301228479248e-17
 2.9572514227049e-17
-1.5307367664543e-17
 2.3981461500460e-17
-7.9686742095316e-18
-1.0833048469570e-17
 3.9972665994845e-17
 2.2438862302277e-17
 6.9973656470474e-18
 4.1672432818135e-18
-1.3872149744759e-18
-6.6096627852213e-18
 8.2901496827942e-18
 2.0426149892201e-19
-8.5980775919845e-18
-2.1241998130362e-20
 1.9822556199221e-19
 1.5682070555862e-18
-1.6947011692190e-18
-1.1334333155667e-17
-1.8520243042817e-18
-8.6127674924828e-18
-1.5039312756010e-17
 1.0126877763189e-17
 4.7303349032804e-18
 5.5281741787353e-19
 4.7247580515906e-18
