%%MatrixMarket matrix array real general
4241 1
-1.7026742898368e-01
-1.7739168594630e-01
-2.3292012499087e-01
-3.4495073429095e-01
-4.1987032194185e-01
-3.1118730424676e-01
-4.9795562805231e-01
-5.7962147863844e-01
 1.6517142471459e-01
 1.6940658945086e-01
-6.1324694953043e-01
-2.1243293869542e-01
-3.7258979260943e-01
-2.1506515401207e-01
-1.3533089944008e-01
-2.5242269830439e-01
-6.4013013678104e-01
-2.3351898152948e-01
-1.0757318430130e-01
 1.0503208545953e-01
 2.0328790734103e-01
-2.7166179245762e-01
-4.9301348029598e-01
-2.6089585758330e-01
-2.9735558510792e-01
-2.0903484371484e-01
-3.0760593200604e-01
-1.8011204672438e-01
 4.7344565313097e-01
-3.3830495913337e-01
 1.0672615135404e-01
-1.2366681029913e-01
-6.3087319905816e-01
 7.0573722065166e-01
-4.5085446482363e-01
 7.7649461583673e-01
-7.2713870269506e-01
 1.2263711344117e-01
-7.6538687949823e-01
 1.2228252986816e-01
 1.3193385186433e-01
-2.0175477770650e-01
 1.0314320198716e-01
-1.0626907772099e-01
 2.8695289762500e-01
-9.2102547031681e-01
 1.3195533363460e-01
 1.2029820423853e-01
 2.9197854160104e-01
-3.1349255910304e-01
 1.0367587137378e-01
 2.2836008257976e-01
-1.1722935990000e-01
 1.3552527156069e-01
-5.9627718548623e-01
 7.0902663365377e-01
-2.4713332404979e-01
-4.1111224673948e-01
-8.9344618863239e-01
-7.7361469494322e-01
-5.9730936399425e-01
 2.2507670694211e-01
-2.9489621465248e-01
-1.5789541169767e-01
-1.5246593050577e-01
-6.7968793710674e-01
-1.9382143466578e-01
-5.2339388963107e-01
-1.4952236272062e-01
-1.5213505695786e-01
-1.4898406381928e-01
-1.0910774041702e-01
-9.1087621995056e-01
-7.4965126337437e-01
 3.4335835769669e-01
-8.2346849066169e-01
-1.4409828868700e-01
-3.4200512455688e-01
-7.5059133700864e-01
-1.8881740578812e-01
-2.3490523917004e-01
-2.2108714965740e-01
-1.2927887079851e-01
-1.1561365383029e-01
-3.0510126760100e-01
 7.1824328169018e-01
 1.0573681687165e-01
-1.6315429242572e-01
-3.2483853448136e-01
-7.7336009494413e-01
-1.3715360558527e-01
-2.3885474976344e-01
-2.1567725321721e-01
-1.1329108466449e-01
-1.0012259548352e-01
-5.1656473694893e-01
-1.4673321151876e-01
 3.7910484213671e-01
-1.5728991449768e-01
-1.5084524539069e-01
-7.3484042755273e-01
-2.3728365895508e-01
-2.2501579092580e-01
-1.3546449793923e-01
-9.8215993838373e-01
-3.4746057730821e-01
 9.0079074028474e-01
 2.1613782066735e-01
 2.4720656565617e-01
-1.4686168898207e-01
 6.3988188512829e-01
-7.1419194605709e-01
 7.5525459112509e-01
-2.1264937123274e-01
-2.6715298212079e-01
-9.7986021618630e-01
 2.8949758271346e-01
-8.1599766006690e-01
-2.4418943429805e-01
 3.0120491604363e-01
-1.4881980875916e-01
 2.1972041485787e-01
-6.7432322115852e-01
 1.2590099863422e-01
-2.1785940153416e-01
 7.3647633728964e-01
-1.0529285228214e-01
 8.3855609941823e-01
 5.1960389116368e-01
-1.3351543178344e-01
 5.5520638000267e-01
-1.3589841634882e-01
 2.4035442022865e-01
-4.7104981729306e-01
 8.8105976657147e-01
-2.0631358033826e-01
 1.2639647240442e-01
-9.7230527918022e-01
 9.5038994125232e-01
-3.5399200931652e-01
-2.6397612394591e-01
-5.3062209574156e-01
-8.8652317577370e-01
 1.3304651700898e-01
-5.9403849903233e-01
 1.2924853622547e-01
-1.4650826863976e-01
 1.1430835412805e-01
-5.2661740733524e-01
 6.5287230679980e-01
 3.5778671692022e-01
-6.7900871557336e-01
 1.2409778066269e-01
-2.9550119419409e-01
 5.1514112288821e-01
 6.9994143381959e-01
 1.1603824941488e-01
-4.1300529486010e-01
 7.0883228154257e-01
 9.2401614437110e-01
 4.2859206310677e-01
-4.6945954068622e-01
 9.9681547738317e-01
-6.2829515895535e-01
-5.5950848694762e-01
 8.0587943584517e-01
 2.6082502591223e-01
-7.8672021734691e-01
 4.3812533313554e-01
 4.0178331703192e-01
 1.4851085012414e-01
-3.0091603463773e-01
 5.5988200187151e-01
-4.9954615097270e-01
-2.1388598357708e-01
-7.6040364000784e-01
 1.2995456386711e-01
 9.1790880397161e-01
 4.3067261856322e-01
 6.2003550553353e-01
 1.2754270530787e-01
 8.8121007882840e-01
 1.2848243410054e-01
-1.6967763999398e-01
-1.1123914289701e-01
 6.1365842962680e-01
 6.7521889934166e-01
-9.9577332409740e-01
 5.3561815014819e-01
-9.3345409100626e-01
 7.4140187189057e-01
-7.0222974511117e-01
 1.4037301232860e-01
-5.6048206122788e-01
 2.4286128663675e-01
 6.3187302612455e-01
 4.1416522988946e-01
-4.9982154087735e-01
-8.4738203191616e-01
 2.2950595767883e-01
-1.1600995213809e-01
 4.9572223108379e-01
-3.1193931747617e-01
 1.2775025323994e-01
 7.1442200257738e-01
-8.5001450322864e-01
-8.6736173798840e-01
 4.1633363423443e-01
 4.2239033067851e-01
 1.5725182268150e-01
-1.6661633071067e-01
 2.0307499520566e-01
-6.5399075044326e-01
 1.4745149545803e-01
-2.2282523048922e-01
-1.0611910620949e-01
-9.5870622570516e-01
-1.1464494836875e-01
-1.9750512914435e-01
-2.8293018564232e-01
-5.8481606318559e-01
-1.8542841674267e-01
-1.0297356458073e-01
-4.8704394467122e-01
 7.1150767569361e-01
-2.8799120206646e-01
-2.3821875584683e-01
-5.0972497381422e-01
-1.0305108169532e-01
-2.1971038055962e-01
 4.5795608181770e-01
-2.2619527376227e-01
 1.2647406999828e-01
-1.1753133702927e-01
 9.0698699805214e-01
-1.8745897913922e-01
 3.2769587146901e-01
-1.1892101604700e-01
-9.1111051309372e-01
 2.6472305349139e-01
-7.1019706866918e-01
-1.3079320783351e-01
 1.3281209971586e-01
 1.1758140656666e-01
-6.3217596489333e-01
 2.0328790734103e-01
 8.1315162936413e-01
 1.7618285302889e-01
-1.3101714801889e-01
 1.3721663539299e-01
-9.8768209909289e-01
-1.4435912743014e-01
 6.8612913398960e-01
-1.9493209099609e-01
 2.7789028920926e-01
-2.9109230125138e-01
 8.3957905731846e-01
-2.4225142291473e-01
 2.3378109344219e-01
-1.1735213245376e-01
 2.0072371096340e-01
-7.2445832382510e-01
 4.0235273338933e-01
-1.7899916706221e-01
-6.8168922965989e-01
-1.5430980272173e-01
 4.8170788216917e-01
-2.6020852139652e-01
-6.6353172956113e-01
 9.6493993351210e-01
-2.2882440774717e-01
-1.7930802660605e-01
-2.5615715987541e-01
-1.4428624577529e-01
-3.5477006424229e-01
-1.4044368932246e-01
-1.9641250696888e-01
-1.6016269517796e-01
-1.4582519219930e-01
-1.5124620306173e-01
 5.9631119486703e-01
-6.8946706498364e-01
-2.9188850048719e-01
-3.6064645047382e-01
-1.9915112345994e-01
-3.9527729618534e-01
-1.6731292012381e-01
-2.2858397126231e-01
-1.3410083053588e-01
 1.7433970933567e-01
 8.6917777662732e-01
-5.4210108624275e-01
-7.4526639972698e-01
-3.8612192353192e-01
-3.5848204408761e-01
-1.8041968806045e-01
-4.1688183680765e-01
-1.9927234236957e-01
-1.9418337279213e-01
-9.2850401790225e-01
-3.2688695500438e-01
 2.1644876646229e-01
 2.5181950708691e-01
-6.8333841811240e-01
-3.2874020418472e-01
-3.1589122870982e-01
-1.3746699941409e-01
-3.4366407787788e-01
-1.7424332451221e-01
-1.6155521433380e-01
-8.7645471101090e-01
 2.3012191111005e-01
 2.1266761138575e-01
-4.0291663234993e-01
-5.8760316005041e-01
-1.8086773936542e-01
-2.8554450570990e-01
-3.9385176190248e-01
-3.2774838444160e-01
-1.0713446984571e-01
-1.4246476222482e-01
-3.1756084477350e-01
 7.0357944730731e-01
-1.2197274440462e-01
-1.4089207231449e-01
-5.4675376169347e-01
-2.2399162695175e-01
-2.8004297914412e-01
 3.9495023964839e-01
-2.9800157453794e-01
-2.2390364810580e-01
-1.4351593394183e-01
-1.0519288234763e-01
-1.9876136327090e-01
-9.9067618258147e-01
 2.1745300872456e-01
-5.5932298151397e-01
 1.5630523812210e-01
-2.9187658718506e-01
 1.1327342020262e-01
-3.1580405338639e-01
 6.5432471410829e-01
-1.5100461368161e-01
 3.8124030629785e-01
-1.3728438958555e-01
 5.1351880647060e-01
 2.8324781756184e-01
-5.8174751568030e-01
 2.6210251179626e-01
-2.8362855455709e-01
 1.3977679730871e-01
-3.1749072021393e-01
 1.3098981188059e-01
-1.6301703981907e-01
 6.6018490925650e-01
 3.2330908783518e-01
-5.4210108624275e-01
 3.4209289047349e-01
-5.2982712845760e-01
 3.0402124846583e-01
-2.1878813558848e-01
 1.4328810349321e-01
-3.1294352009910e-01
 1.7291448624204e-01
-1.4861440995062e-01
 1.1263774944949e-01
 5.3781848766143e-01
-3.5892512920133e-01
 1.1570063483679e-01
-3.3615920087277e-01
 3.2661333599716e-01
-9.9129840148693e-01
 1.3780617265267e-01
-2.5673445768094e-01
 1.9759580726275e-01
-1.0859576359152e-01
 1.4369847734607e-01
 1.6943911551603e-01
 6.8835995931105e-01
-7.6728987746799e-01
-7.6200605518765e-01
 3.1255667674948e-01
 1.9019787543986e-01
 2.4783198170852e-01
-1.4638837449058e-01
 2.0483179078600e-01
-2.4365399178082e-01
 2.0628025991625e-01
 5.8655337531466e-01
 1.3877787807815e-01
 8.9175628686933e-01
 3.1731462922189e-01
 2.3938226651799e-01
 1.2604463771981e-01
-6.3277472888286e-01
-8.7658245363451e-01
 1.0347705783266e-01
-6.5168782410215e-01
-4.8993253869251e-01
-1.5157146371347e-01
 1.2729617707152e-01
 1.7889335846011e-01
 5.7986966934282e-01
-1.1173894414027e-01
-5.9540289112761e-01
-1.6464387323232e-01
-5.7881110945441e-01
-2.4117128069329e-01
 5.1457579333405e-01
 2.3602391656894e-01
-3.4694469519536e-01
 2.3613923316734e-01
-3.0277429868830e-01
-1.4505547178554e-01
-4.4528004201256e-01
 1.3239611791204e-01
-8.2300056370823e-01
 1.1716333270684e-01
 2.3193858331472e-01
 2.3051111716556e-01
-5.8590376741496e-01
 5.2475385148298e-01
 2.3852447794681e-01
 1.9515639104739e-01
 1.3274647795594e-01
 1.4525424613578e-01
 8.8023356909620e-01
 1.9922837265443e-01
 1.3297739645535e-01
-1.4514756584150e-01
-1.5173273878663e-01
 3.3682499005752e-01
-4.8033033596287e-01
 2.9201458737990e-01
-4.6326876945973e-01
 4.2672290896981e-01
 1.1869672595996e-01
-1.1755733516777e-01
-4.2478828258877e-01
 9.3173624197973e-01
 1.2536087619364e-01
-8.9785492408956e-01
 4.3160313959717e-01
-5.3023606670647e-01
 8.6885509534983e-01
-2.9275028204098e-01
 6.5793490896350e-01
-2.0725116586180e-01
 2.2248064126081e-01
-1.0629717629356e-01
-7.1828393927165e-01
 3.1848438816762e-01
 1.7618285302889e-01
-3.2692123348130e-01
-1.4566980028091e-01
 4.9915784534024e-01
-4.4700668599753e-01
 2.2028243533607e-01
-1.9994530854660e-01
 2.4539098540457e-01
-3.6092297347568e-01
-1.0096632731271e-01
 1.8838520966704e-01
-2.2022856628612e-01
-1.3713788331278e-01
-6.5022180683190e-01
-8.3908067136323e-01
-5.9306621068540e-01
-1.9604140903146e-01
-1.2464043900725e-01
-2.0959648707604e-01
-6.3855026878024e-01
-1.9515639104739e-01
-5.6004463219739e-01
-5.4210108624275e-01
-3.1844808682788e-01
-3.7787184329175e-01
-3.3575664026930e-01
-1.6617514776379e-01
-3.8394189617672e-01
-2.2947534785613e-01
-1.4892098703598e-01
-2.0435085275397e-01
 3.8287515519153e-01
-5.3044591288853e-01
-1.6696713456277e-01
-8.9908969273254e-01
-3.5308819462398e-01
-4.2852696677647e-01
-2.3844729679904e-01
-2.7838530266216e-01
-2.1060318475291e-01
-1.6351650351766e-01
-1.4380166991486e-01
-1.8035161038210e-01
-1.0115064168203e-01
-3.2211646544544e-01
-8.3936984577852e-01
-4.2104559361170e-01
-3.6671082536532e-01
-1.7663674335518e-01
-3.5591053599296e-01
-2.0349314036190e-01
-1.7500612260184e-01
-4.8246603043580e-01
-4.7975946132484e-01
-2.9503851618762e-01
-4.9859747407177e-01
-6.8326842132500e-01
-3.9293996117560e-01
-3.3735569143322e-01
-1.6888108762467e-01
-3.3614832230969e-01
-1.8298134830770e-01
-1.4114157008376e-01
-1.0315059784941e-01
-1.0803803598275e-01
 5.1533484510952e-01
 4.9020168349859e-01
-6.8050046282683e-01
-2.8742540398052e-01
-3.0049459997288e-01
-1.0880947809408e-01
-3.0531096997981e-01
-1.3449468167153e-01
-1.3822522530744e-01
-3.6915296502267e-01
 6.7738918857821e-01
-9.5525495879319e-01
 8.6600309714101e-01
-5.6481153116411e-01
-1.7134645206173e-01
-2.8447014920300e-01
-4.6475431473798e-01
-3.0016282448891e-01
-8.4498151287668e-01
-1.2404730100123e-01
-4.1296873830392e-01
 1.5608445525644e-01
-1.2132899936471e-01
-1.3012187898356e-01
-5.8457913197270e-01
-3.7222838207294e-01
-2.7776971926605e-01
 2.5031079102433e-01
-2.8159358805940e-01
-1.4032106566984e-01
-1.2188358117452e-01
 1.1781107202902e-01
-3.2412901572812e-01
-1.9556296686207e-01
-1.0477865320172e-01
-5.5256706045978e-01
 9.4773400313244e-01
-2.8511717524602e-01
 8.5901166777536e-01
-2.9023464089967e-01
 5.1795203904914e-01
-1.2269492252932e-01
 1.9855229082291e-01
-5.0271744232722e-01
 1.7110065534537e-01
-1.0832128380031e-01
-5.9478922211339e-01
 2.0814581494063e-01
-2.9141697166789e-01
 1.4274190439831e-01
-2.9146278592300e-01
 1.1789190650474e-01
-1.2276528091996e-01
 5.3766647687876e-01
 4.6734534644988e-01
 6.6732643716483e-01
-1.0901652844342e-01
-5.8643957308757e-01
 3.1853860017066e-01
-2.8783147509896e-01
 1.9574408323105e-01
-3.0178372121281e-01
 1.7833203382840e-01
-1.2721729259583e-01
 6.1894879123092e-01
 1.2163427003890e-01
 3.9524081978191e-01
 5.8559961621605e-01
-5.7862943482751e-01
 4.1776813895663e-01
-2.5784084041117e-01
 2.5661744247147e-01
-3.0709172849544e-01
 2.4746637469217e-01
-1.2474305911728e-01
 9.8163184702211e-01
-2.4680778254460e-01
 3.9633010415208e-01
 4.3537493488871e-01
-4.8957851360673e-01
 5.0828181915033e-01
-2.0255593082835e-01
 3.3693964033981e-01
-3.0030375239194e-01
 3.1522387711515e-01
-1.3424271734995e-01
 1.1327919158385e-01
-1.3541685134344e-01
 5.0876186943882e-01
-3.9871534893154e-01
-4.0587787233597e-01
 3.4197610086226e-01
-3.9355891563453e-01
 1.5443320460032e-01
-1.8361558270196e-01
 3.0960922339762e-01
-3.4774495042946e-01
 1.4746685063884e-01
-1.5328450314600e-01
-9.4011170376218e-01
 1.8649361568923e-01
 9.6392198693762e-01
 1.2791984547274e-01
 2.9531740441533e-01
 1.4341358170308e-01
 5.5005792088304e-01
 2.4708717562279e-01
 1.0889154004104e-01
 1.1539808479329e-01
-2.9032765774817e-01
 1.6869643702788e-01
-1.7667074400651e-01
 4.8344850388484e-01
 2.2848981277486e-01
 3.8960326109676e-01
 3.3606395363730e-01
 2.6756190914442e-01
 1.7704188807658e-01
 4.9991649053713e-01
-3.3580178575885e-01
 2.4368528028784e-01
-1.0245710529988e-01
 6.9659989582194e-01
-5.4737028557541e-01
 6.0841918272600e-01
-5.6085443779362e-01
 8.1043084792078e-01
 2.6207334913320e-01
 6.9302202865273e-01
-1.8691645453650e-01
 9.3167594486441e-01
-2.1036969740210e-01
 3.9472385834540e-01
 1.9059125315843e-01
 1.2629785107249e-01
 1.2029337357632e-01
 1.9867514812721e-01
-9.1250775921096e-01
-1.4016701211164e-01
 7.8198081690517e-01
 2.3594949778716e-01
 9.2095037206761e-01
-1.3433578378908e-01
 4.4584448814006e-01
-2.8797532555063e-01
 1.0882397163375e-01
-9.4383656840694e-01
 2.0124489460172e-01
-2.1556368131775e-01
 9.5951892264967e-01
 3.2885545957380e-01
-1.1787310493991e-01
-8.8219183005031e-01
-8.1541517310249e-01
-8.5582871466712e-01
-1.1897838885943e-01
-1.3770710673608e-01
-1.1648800361069e-01
-1.8111597338096e-01
-7.4949277421237e-01
-9.7803167474486e-01
 3.3501847129802e-01
 3.0178767471134e-01
-3.3903622289783e-01
-5.0553943222804e-01
-3.1946779351900e-01
-2.1072982987470e-01
-3.4731336704883e-01
-3.0091953573927e-01
-1.3562481103363e-01
-1.8029201628478e-01
 1.1134756311426e-01
-2.0735366548785e-01
-9.2482445313013e-01
-7.4645704125795e-01
-4.8410385536862e-01
-3.7583711836344e-01
-2.9864741850169e-01
-2.1249616419254e-01
-2.6498665691823e-01
-1.1168717792614e-01
-1.6165178215224e-01
-1.6859343782150e-01
-7.0310510885685e-01
-7.8951602200394e-01
-7.0007280020135e-01
-4.4691138222930e-01
-3.0690649144809e-01
-2.0413760347299e-01
-2.8339717625372e-01
-2.1492089547502e-01
-1.7110295286422e-01
-6.6159512210322e-01
 3.7141513822836e-01
-1.7293024651144e-01
 8.8243214818595e-01
-5.5227338405047e-01
-4.1533717755016e-01
-3.0599214810687e-01
-1.6381456190359e-01
-3.0462702548203e-01
-2.0495815169031e-01
-1.3791442953225e-01
-1.0433352776607e-01
 6.5553573853905e-01
-7.4507728545920e-01
 1.6093897048375e-01
-6.3689347982942e-01
-3.1499083478572e-01
-2.9494080075908e-01
-1.5653008370091e-01
-2.6120634913159e-01
-1.5366957352809e-01
-1.4818088168846e-01
-6.6563647498370e-01
-1.6422410306638e-01
-2.3698626611460e-01
 1.6490782806140e-01
-5.5885979844543e-01
-2.4471907228831e-01
-2.7630544079558e-01
-8.4918679343673e-01
-2.7015477614274e-01
-1.1817438684002e-01
-1.3677045807926e-01
-4.4473103530578e-01
-1.9191394892530e-01
 6.4225426192610e-01
-6.9063678387327e-01
-5.5698008825370e-01
-1.3605965746877e-01
-2.6417895604690e-01
-4.5221140135752e-01
-2.4545561568932e-01
-6.8822284681366e-01
-1.3451412731726e-01
-1.8355699121901e-01
 9.3157954088449e-01
 3.9381738091405e-01
-3.2955193241468e-01
-5.2363233773482e-01
-2.4538625151456e-01
-2.5881387243093e-01
 2.5909895071763e-01
-2.4436686485245e-01
-1.4252848098750e-01
-1.3182833162556e-01
 1.2435554248809e-01
-4.2683006651681e-01
 5.1994270434258e-01
-6.0917931940171e-01
-5.3182380613841e-01
 9.2850597869623e-01
-2.5894791225120e-01
 7.3361006792716e-01
-2.3532538499900e-01
 4.2332435295318e-01
-1.3371721189347e-01
 4.2885761153490e-01
 2.9751185239360e-01
 3.4965520062658e-01
-5.4052899309265e-01
-5.2227012367958e-01
 2.1071137759550e-01
-2.6339800599550e-01
 1.2965672625281e-01
-2.3816570873304e-01
 9.8625339661751e-01
-1.3535512268648e-01
 7.0573197666208e-01
 6.4276925795803e-01
-7.6002572291234e-01
-8.3922669161241e-01
-5.2870046484342e-01
 3.2637512982405e-01
-2.6620139692417e-01
 1.6903082546891e-01
-2.3561469527760e-01
 1.5518249458203e-01
-1.3514737018041e-01
 1.0106656964971e-01
 4.8660348753865e-01
 1.1333978460620e-01
 8.7878651838097e-01
-5.0290165673404e-01
 4.5928354189241e-01
-2.7407063844230e-01
 2.1301096979956e-01
-2.4312529777241e-01
 2.1689487701806e-01
-1.3884054277452e-01
 1.1468578167625e-01
-1.1858732312103e-01
-2.6346112791398e-01
-4.0305215762149e-01
-4.9017319534818e-01
 5.9858699524458e-01
-2.7128556265922e-01
 2.5609579476075e-01
-2.5203381196556e-01
 2.9246451035165e-01
-1.4603365164792e-01
 1.3451151396191e-01
 3.0357660829594e-01
-2.8205519517210e-01
 1.0587234214321e-01
-4.0415571625183e-01
 7.1321204245326e-01
-1.9695087989660e-01
 3.1700589254243e-01
-2.5172977014846e-01
 3.8614178337645e-01
-1.3719493192240e-01
 1.8195998781895e-01
 6.9812455512699e-01
-6.6678433607859e-01
 1.3915734883851e-01
-1.1964401569635e-01
 7.0783126407671e-01
-1.9096590185328e-01
 3.7928073418751e-01
-1.7220900092711e-01
 4.6752463206032e-01
 5.2655223244433e-01
 2.5271613150373e-01
-2.4616810326283e-01
-1.7531549129091e-01
-9.1940344226771e-01
 3.0840246093022e-01
 4.8758073966889e-01
 3.6109149131271e-01
 2.1463974556722e-01
 9.3750776032309e-01
 4.1702773146319e-01
 1.6618935121846e-01
 4.1561600418793e-01
-7.2153654578910e-01
 7.9000391298156e-01
 8.7278274885083e-01
 1.0827755227899e-01
-3.2791427922799e-01
-3.6528304739369e-01
 1.0075569437872e-01
-1.6246769554695e-01
 4.4858864886588e-01
-3.9670957491245e-01
 2.6667283545114e-01
-2.6458385332637e-01
 1.3275425246726e-01
-5.0045737155416e-01
 5.0700190605121e-01
-1.0707902657189e-01
 1.4331134571784e-01
-1.8757358377669e-01
 5.7991263700818e-01
-2.7138935630028e-01
 1.0205052948520e-01
-2.1163808833534e-01
-4.4104496591036e-01
-4.5623631849528e-01
-1.0476566243359e-01
-3.5341962858117e-01
-5.8306731265702e-01
-8.1472071827993e-01
-8.5364547099276e-01
 1.2224379494774e-01
-1.0255197298997e-01
 7.9268731335846e-01
-3.0623137824259e-01
-4.4479188868329e-01
-2.4034263229381e-01
-2.6219846938834e-01
-2.6855008049265e-01
-3.0194131358630e-01
-1.7805090408079e-01
-1.6586136938547e-01
 2.0003530082358e-01
-2.2285775655439e-01
 5.1824863844807e-01
-5.5684048909702e-01
-6.6052681990419e-01
-3.1331894501785e-01
-3.1575081062281e-01
-2.1854759020639e-01
-3.3319414183784e-01
-5.3900511920570e-01
-1.7774729957199e-01
-1.1210650463500e-01
-2.3807046828708e-01
-2.6433526591554e-01
-6.1720815350641e-01
-4.8643121319332e-01
-2.5474089092665e-01
-2.5839217722115e-01
-2.0385570228768e-01
-2.5518002357367e-01
-1.4371741214119e-01
-1.0298306851815e-01
 1.4918621893400e-01
-1.4474099002682e-01
-5.1147237487004e-01
-4.7104257965788e-01
-4.9294071341645e-01
-2.4948774026043e-01
-1.8352673643291e-01
-2.7315190903970e-01
-2.3160697005415e-01
-1.1800779672378e-01
-1.0352799477570e-01
-1.9891044106962e-01
 1.1030808428139e-01
-1.1825664145843e-01
-5.3771861228586e-01
-3.7330603329877e-01
-2.6552509420935e-01
-1.8001725166936e-01
-2.3528404654911e-01
-1.9214077134051e-01
-1.1179335304297e-01
-9.2478361619168e-01
 1.0302089042957e-01
 4.9791984771397e-01
-1.7135950861405e-01
-5.2669073498334e-01
-3.0416653715344e-01
-2.4753826600790e-01
-1.2889861207061e-01
-2.3077799432723e-01
-1.5014979955468e-01
-1.1466183015429e-01
-5.7783554085740e-01
 6.1826120666217e-01
-1.7506201668144e-01
 8.0098188349445e-01
-4.8594477556052e-01
-2.1710975013374e-01
-2.4254501542617e-01
-8.6578622495139e-01
-2.3376062740180e-01
-1.0821231193618e-01
-1.0622182524361e-01
-4.3118635469810e-01
-2.5642736631998e-01
-1.2337543096527e-01
-1.2354822568651e-01
-4.8344247772271e-01
-1.1796146049976e-01
-2.3407831988979e-01
-3.6306291358628e-01
-2.2084458619290e-01
-5.8970600546986e-01
-1.0514178378213e-01
-1.3737484521927e-01
 1.2839325414481e-01
-6.1350596369629e-01
-1.4643827464652e-01
-4.6128416681856e-01
-1.3354161152934e-01
-2.3158536383666e-01
 1.8148833510097e-01
-2.2294096437864e-01
-8.4217244381013e-01
-1.0222656013903e-01
 9.5926461614138e-01
-6.1272330525303e-01
-1.4815283873835e-01
-2.0975890024488e-01
-4.6618780073933e-01
 9.4028599272424e-01
-2.3044602643941e-01
 7.4466516929448e-01
-2.1955759767398e-01
 4.5156021867238e-01
-1.0215951248993e-01
 3.9268076964269e-01
 2.7653592848780e-01
 9.5545316450285e-01
 4.2170043498824e-01
-4.6837737283297e-01
 2.0297530909996e-01
-2.3136681167862e-01
 1.3109985387050e-01
-2.2346557473398e-01
 9.7546902167455e-01
-1.0231499240269e-01
 6.6722807737127e-01
 3.8544742484575e-01
 5.1397959239391e-01
-1.1963561109656e-01
-4.8257412096297e-01
 3.1230787656522e-01
-2.3178965952438e-01
 1.9232664160953e-01
-2.2624077089532e-01
 1.5051339546349e-01
-1.0245793449211e-01
 9.9877225054161e-01
 8.6368900312911e-01
 4.5807541787513e-01
 1.3820189567401e-01
-5.0023322013410e-01
 4.2424578144026e-01
-2.2690395087395e-01
 2.4789901663461e-01
-2.2855934031909e-01
 2.0313700036624e-01
-9.9068903120179e-01
 1.4001599993480e-01
-8.5599116770446e-01
-6.6563237127032e-01
 1.2877204727882e-01
-5.0755800601377e-01
 5.5858433451191e-01
-2.1716519993548e-01
 2.9266087461247e-01
-2.3267325068925e-01
 2.5911149818303e-01
-9.5310030261624e-01
 1.8015165328249e-01
-3.1910780441680e-01
 7.7249404789592e-01
 5.8546917314217e-01
-5.0389677627874e-01
 7.5571390128078e-01
-2.0402876558205e-01
 3.5222972193075e-01
-2.5488484764356e-01
 3.3293068820274e-01
-1.0799293860167e-01
 2.2887593887631e-01
 2.0784155646547e-01
-1.8594067258126e-01
 1.2240642527361e-01
-4.7290597354816e-01
 1.0206282278077e-01
-1.8037947478674e-01
 4.9267649325128e-01
-3.1234984535175e-01
 4.4614956032846e-01
-1.3980729285396e-01
 2.8968187227373e-01
-4.8057261295420e-01
-5.4101688407027e-01
 5.8492707205593e-01
-4.4255343421713e-01
 9.4415326459762e-01
-1.8601313157087e-01
 1.6518705487324e-01
-4.1422217987836e-01
 4.6621120419627e-01
-1.2777915068522e-01
 2.2746227516087e-01
 4.3850556866176e-01
-2.0870891820346e-01
-3.4114421357256e-01
-7.7268809168528e-01
 1.0291046538524e-01
-4.7559753748455e-01
 1.1270893558461e-01
-5.7018192251013e-01
 1.5688405435865e-01
 6.5334022913976e-01
-1.6535584493699e-01
-7.1761765040468e-01
 2.6077665021564e-01
-2.4537819407577e-01
 5.2954836071245e-01
-7.2756498969063e-01
 4.3624608709037e-01
-2.0206041392533e-01
-1.8201043970600e-01
-2.4096393283490e-01
-7.9417809134563e-01
-1.5134456873371e-01
-2.1721461749657e-01
-1.5269393217499e-01
-2.6374390047979e-01
-1.4692287228296e-01
-1.8383023810419e-01
-1.7583004297509e-01
-1.7350976142112e-01
 6.2883726004159e-01
-2.1765358612646e-01
 6.0200325627258e-01
-4.2389313236386e-01
-7.6274333922169e-01
-2.5861214561864e-01
-3.3663708426863e-01
-2.1779421677667e-01
-3.9279062341980e-01
-4.9708278584535e-01
-1.8522781704732e-01
 8.0230960763927e-01
 1.0299920638612e-01
 2.3066401219629e-01
-4.9766521876663e-01
-5.7211744939447e-01
-2.2643963118589e-01
-3.1709088914045e-01
-1.6092482979193e-01
-3.0266284417197e-01
-1.0047363821863e-01
-1.3671386844821e-01
-6.2937936112783e-01
-1.1926223897341e-01
 3.5952144039619e-01
-4.2056437606809e-01
-5.5584844734764e-01
-2.0110902538661e-01
-2.2780710609315e-01
-2.0391149772516e-01
-2.6838005534172e-01
-1.0490900720304e-01
-1.2430618760707e-01
-5.0624109938779e-01
 3.1008182133085e-01
-4.0255071411671e-01
-4.2565263964681e-01
-4.6134274924548e-01
-2.1468711406904e-01
-2.0767546021954e-01
-2.0154154307722e-01
-2.2890194831558e-01
-9.1106149260929e-01
-1.0333704543895e-01
 1.4362968280002e-01
-1.4848148752189e-01
-8.0499300801618e-01
-4.4392448994838e-01
-3.7095938933481e-01
-2.0973194204677e-01
-1.6885209257644e-01
-1.8832227872391e-01
-1.8523837005867e-01
-9.3332264794865e-01
-8.4052326795190e-01
 7.5011204929767e-01
 2.6979015809586e-01
-1.1660187789267e-01
-4.2496193687674e-01
-2.9323065219882e-01
-2.0086844772170e-01
-1.1951544989330e-01
-1.9003420641077e-01
-1.4608020007209e-01
-9.1127112088900e-01
-6.0249162312997e-01
 9.9822832833919e-01
-4.2876807790013e-01
 7.9197580568277e-01
-4.1708732533157e-01
-2.0313873805184e-01
-1.9751168894863e-01
-7.9440675505289e-01
-1.8789995743131e-01
-1.0126674924226e-01
-8.7985764761846e-01
-3.9628886767558e-01
-3.9792591422470e-01
 5.3093719199794e-01
-9.3523957024957e-01
-4.1067381308773e-01
-1.1136430072678e-01
-1.9123970302512e-01
-2.7396012689138e-01
-1.8386392695028e-01
-5.4137826213850e-01
-8.6867528842163e-01
-1.4009794608594e-01
 1.5007052133094e-01
-5.4701387733683e-01
-5.1894151139892e-01
-4.0414985208421e-01
-1.2495641771655e-01
-1.8893377775874e-01
 2.2054171280246e-01
-1.8448294106207e-01
-5.3867560619925e-01
-8.5599601421045e-01
 9.6677427999570e-01
 9.1456688413889e-01
-1.8422543086307e-01
-9.1157092860445e-01
-4.0553099115820e-01
 8.9226493656236e-01
-1.8809719691431e-01
 7.6580813411304e-01
-1.8514675625145e-01
 4.5650358056489e-01
-8.6173125214959e-01
 3.5337268014723e-01
 3.8284872776358e-01
-6.2705849085236e-01
-6.7144301728848e-01
-4.1170600069256e-01
 1.9338270100218e-01
-1.8971058049741e-01
 1.3041728092151e-01
-1.8991286564219e-01
 9.7467961835157e-01
-8.8117675231594e-01
 6.0577584546690e-01
 7.7401023687151e-01
-1.0851169680685e-01
-1.0133089029321e-01
-4.2294376576191e-01
 2.9971671470587e-01
-1.9420784193856e-01
 1.8884774164086e-01
-1.9851946022484e-01
 1.5074619462934e-01
-9.2235272599703e-01
 8.5813315064618e-01
 1.0397803765997e-01
-1.3201855515906e-01
 2.5222845459385e-01
-4.4367493920912e-01
 4.0876336011854e-01
-2.0322323147792e-01
 2.5630287674907e-01
-2.1272645070496e-01
 2.0598552442006e-01
-9.9542613781596e-01
 1.1286936746777e-01
-3.6978070345334e-01
 2.3811790213213e-01
 1.4941661189566e-01
-4.7989830946649e-01
 5.1891666255359e-01
-2.1674014056910e-01
 3.3222402350503e-01
-2.3204305679457e-01
 2.6376175983338e-01
-1.0561145195893e-01
 1.4626893902025e-01
-7.9611610272895e-01
-1.2305694657711e-01
 3.2061213493112e-01
-5.3572489285101e-01
 6.4130856339005e-01
-2.4795629033872e-01
 4.0982841338380e-01
-2.6401682598562e-01
 3.1821792219238e-01
-1.0697632706558e-01
 1.8365570192478e-01
 1.0910733037536e-01
-5.4086780627155e-01
 1.0154908598042e-01
-6.4655197840593e-01
 8.2872942169570e-01
-3.0988884591789e-01
 4.9930685029949e-01
-3.3067916276925e-01
 3.7475223513528e-01
-1.6849123570463e-01
 1.9830155938963e-01
-9.5447060628404e-01
-8.0969573493933e-01
 3.1277199797133e-01
-8.2481852305173e-01
 7.4967483237146e-01
-3.4625900585064e-01
 2.7442074138639e-01
-4.5101993743595e-01
 4.0892657300967e-01
-1.5941002083431e-01
 2.1650524550702e-01
 2.7047794884903e-01
 4.3076284049091e-01
-9.2264673142274e-01
-1.1749160514104e-01
 1.8703662307145e-01
-5.5779044871440e-01
 1.2313874166348e-01
 4.2283884726935e-01
-3.4163210455018e-01
-6.5594231435373e-01
-2.8533106992394e-01
-2.9352425667061e-01
-5.5193246523110e-01
-8.7301937558857e-01
-2.4409715016066e-01
-3.0854436189468e-01
-6.0463157686560e-01
-7.5967074843960e-01
 1.6493425548936e-01
-1.0320249429346e-01
 1.8180715179866e-01
-2.8639605721317e-01
-5.4569165390327e-01
-1.9984309562710e-01
-3.8511143321162e-01
-1.6811023293429e-01
-3.2257637962053e-01
-1.1242224110063e-01
-2.1573711488390e-01
-3.0899761915837e-01
-5.9034808291836e-01
 2.6725583551768e-01
-3.9311143410169e-01
-7.3694844760519e-01
-1.9622863543601e-01
-3.4340619676394e-01
-1.5199068690896e-01
-3.7533211211583e-01
-5.1333542129655e-01
-1.5539000452027e-01
-8.8904578143811e-01
 3.0086610286473e-01
 2.0152607881074e-01
-3.4918381893220e-01
-6.0813680002609e-01
-1.7005062534090e-01
-2.8816700046038e-01
-1.4620078688397e-01
-3.0408019508809e-01
-7.7670412416717e-01
-1.4571734559523e-01
 3.8543387231860e-01
-1.1140177322289e-01
-6.7464480182911e-01
-3.4006423070152e-01
-5.4687780078048e-01
-1.6505274360566e-01
-2.3957166839711e-01
-1.5183045079752e-01
-2.6645236046316e-01
-7.7173806845963e-01
-1.2412403693837e-01
 1.7669446092904e-01
 2.5079967941842e-01
 2.0530384575550e-01
-3.3991481983784e-01
-4.5081442760728e-01
-1.7020801940956e-01
-2.0861931903820e-01
-1.4889022508825e-01
-2.2721658783795e-01
-7.0742971381730e-01
-1.0162636476066e-01
-8.3348042009823e-01
 7.3353053232222e-01
-2.5293759057729e-01
-3.4221044545566e-01
-3.7043966381701e-01
-1.6430089844225e-01
-1.6201680124293e-01
-1.4505393474991e-01
-1.8252394710726e-01
-7.2670092861884e-01
-8.2090097543688e-01
-3.3819653891612e-01
 8.6894060740209e-01
-8.9153944643483e-01
-3.3538608811533e-01
-2.8469454250866e-01
-1.6092178212011e-01
-1.1810021270300e-01
-1.4532003774963e-01
-1.4329696964302e-01
-7.0676827929699e-01
-5.9752407540827e-01
 7.2632567007288e-01
 7.4970886161478e-01
 1.0897078866427e-01
-3.3287306264882e-01
-1.9673746883280e-01
-1.5763270840497e-01
-7.4731057642339e-01
-1.4341432420764e-01
-9.8739184958519e-01
-6.9237253749783e-01
-3.7125113350021e-01
-2.1444163719048e-01
 2.1876150522147e-01
-2.1606116418563e-01
-3.2905141477264e-01
-1.0615085482308e-01
-1.5398148595584e-01
-2.6402986838825e-01
-1.4244647481846e-01
-5.3116358787491e-01
-6.8259006295985e-01
-1.2943549410487e-01
 2.2809750236611e-01
 2.8903644072337e-01
 1.3485823311473e-01
-3.2842584443888e-01
-1.0827024209430e-01
-1.5266682114351e-01
 2.1072356326357e-01
-1.4297072752463e-01
-6.5317669349485e-01
-6.7639915101783e-01
 1.1199426629176e-01
-9.0906964031120e-01
 2.9992589629327e-01
 5.5316503059979e-01
-3.3215551789882e-01
 8.7147826931311e-01
-1.5316662528082e-01
 7.0549000846753e-01
-1.4496903128297e-01
 4.0953353758561e-01
-6.8085066703008e-01
 3.6237544879096e-01
-7.8063911671672e-01
 2.2188197459916e-01
 1.5650288953239e-01
-3.4169766734378e-01
 1.8751072387126e-01
-1.5631765524747e-01
 1.1925597712242e-01
-1.4961514192159e-01
 8.8592540543988e-01
-6.9669241013006e-01
 6.1642780903153e-01
 1.1468690580552e-01
-3.4778156374725e-01
-8.4653150374953e-01
-3.5791755397777e-01
 2.9007880737618e-01
-1.6290062984793e-01
 1.6693900709093e-01
-1.5756112753024e-01
 1.3584647826341e-01
-7.2732784352310e-01
 8.7000028673732e-01
 9.8054566853231e-01
-3.6422416731935e-01
 1.7370748394384e-01
-3.8359294248813e-01
 3.9632184166256e-01
-1.7573299221277e-01
 2.1328344330776e-01
-1.7168740009716e-01
 1.8232647293374e-01
-7.8483120647013e-01
 1.1222816468537e-01
-1.4478300286100e-01
 4.0339097080039e-01
 8.8251346334889e-01
-4.2545645459766e-01
 5.0974947712425e-01
-1.9943063740775e-01
 2.6255607546954e-01
-1.9681287515283e-01
 2.2890410956658e-01
-9.4013325393307e-01
 1.3348969911784e-01
-6.9658634329478e-01
 9.1642188629337e-01
-7.9336493971627e-01
-4.9726831025307e-01
 6.1306256998381e-01
-2.4815650763774e-01
 3.1669339271666e-01
-2.4105423436282e-01
 2.7090608897708e-01
-1.0935494880622e-01
 1.5132100904426e-01
 1.1132858957624e-01
-4.0569490041692e-01
 1.9264917352352e-01
-6.3843368560275e-01
 6.8088569871144e-01
-3.0439664936613e-01
 3.5056558336592e-01
-2.9270896295275e-01
 2.9218248011000e-01
-1.4227520152261e-01
 1.5293586029004e-01
 9.2767048383291e-01
-9.6390655331645e-01
 3.1181146260915e-01
-7.9514428901806e-01
 6.1917634145960e-01
-3.6027791939682e-01
 2.0775529933153e-01
-4.1073216515079e-01
 3.1776803203716e-01
-1.6920607538628e-01
 1.7366273849655e-01
-5.9032097786405e-01
 1.1367859778511e-01
-6.0612322452802e-01
-1.1702264892071e-01
 2.0615079712897e-01
-5.1231706747084e-01
 1.0644560919725e-01
 3.5149834431980e-01
-1.8648277366751e-01
-1.8821749714348e-01
-1.2132087610644e-01
-1.0503649022738e-01
-1.1658505699253e-01
-1.9994345252500e-01
-9.7772040423081e-01
-6.5204777201091e-01
-8.7932416753835e-01
-1.3015929012647e-01
 5.1558895499369e-01
-6.4519346625307e-01
 1.5518092521161e-01
-3.2323116818180e-01
-7.2670703518607e-01
-1.6946583972802e-01
-4.0770668773447e-01
-1.5219468652096e-01
-3.8478437101609e-01
-6.6447062097306e-01
-1.9582828363456e-01
 4.1470733097571e-01
-3.7621815385247e-01
 1.1039075469704e-01
-2.6710240500780e-01
-7.0582202587561e-01
-1.4312433636932e-01
-3.3122829522837e-01
-1.0114460763367e-01
-3.4667043365310e-01
-2.4639081813937e-01
-1.5774402322180e-01
-3.7865760874056e-01
 4.3368086899420e-01
 1.0110185258427e-01
-2.6111960903741e-01
-5.9557980325775e-01
-1.2156000674916e-01
-2.8878380141098e-01
-9.9487272502454e-01
-3.0392261400758e-01
-6.4318883351850e-01
-1.4430822951033e-01
-6.9388939039072e-01
-3.8218126580114e-01
-1.0625181290358e-01
-2.4790257254296e-01
-5.4290461899019e-01
-1.2200952027393e-01
-2.4240767223652e-01
-1.0853167374993e-01
-2.6466211580225e-01
-5.2195667446542e-01
-1.2315881652678e-01
-1.1169992882032e-01
-1.1916059501973e-01
-1.2469002609941e-01
-2.4849542322646e-01
-4.4734795658811e-01
-1.2552765075794e-01
-2.0630734205501e-01
-1.0221749927794e-01
-2.2609376276931e-01
-4.8790698331889e-01
-1.0128787557862e-01
-1.6103790393199e-01
 3.5399200931652e-01
-8.8633527600690e-01
-2.4794537390718e-01
-3.6782301244845e-01
-1.2105929713910e-01
-1.6103063092711e-01
-1.0028304732433e-01
-1.8128884372690e-01
-5.1039853542960e-01
-8.1128247465587e-01
 2.3085713570826e-01
-4.5706914273379e-01
-3.0855716202580e-01
-2.4539122441369e-01
-2.8025262675272e-01
-1.1995765244235e-01
-1.1774863769499e-01
-9.9890750400213e-01
-1.4132871675855e-01
-4.9038975366304e-01
-5.9578873068231e-01
-4.4658795704446e-01
 8.5777417205843e-01
-9.2254593450202e-01
-2.4409960135394e-01
-1.9248227475937e-01
-1.1777366078209e-01
-7.3633005877163e-01
-9.9076948027523e-01
-9.6729186199683e-01
-4.8598706451681e-01
-3.6980930013488e-01
-6.3670503145128e-01
-8.6070723539654e-01
-1.6021472555011e-01
-2.4234539490372e-01
-1.0277199970936e-01
-1.1621297619160e-01
-2.7479918738749e-01
-9.9271611590019e-01
-5.1560665107229e-01
-4.8163490532929e-01
-1.4139701890592e-01
 1.7175634354984e-01
 2.1340931578601e-01
 1.8612007415949e-01
-2.4339920372079e-01
-1.0789733579593e-01
-1.1604292811160e-01
 1.9187527823234e-01
-1.0021761134667e-01
-5.7465449418515e-01
-4.8275427980791e-01
 8.7863641934049e-01
-4.4553170695924e-01
 1.6063895141383e-01
-1.1244599544026e-01
-2.4766574115040e-01
 8.2149872567090e-01
-1.1777479505198e-01
 6.6925484685569e-01
-1.0272095502881e-01
 4.0212326390514e-01
-4.9260442045629e-01
 3.1516514224652e-01
-7.1603083163195e-01
 2.1742658129660e-01
 5.6782361337838e-01
-2.5725355689861e-01
 1.7515866181846e-01
-1.2235984656831e-01
 1.1518231851692e-01
-1.0771636642840e-01
 8.5765628073557e-01
-5.1712112922750e-01
 5.3918003732045e-01
 1.8652681938076e-01
 1.0907073855204e-01
 1.4371438609474e-01
-2.7415330601423e-01
 2.6640021887984e-01
-1.3076532322972e-01
 1.6321049002592e-01
-1.1624787067049e-01
 1.3030078687367e-01
-5.6085436607622e-01
 7.5317040835898e-01
 1.2125920384985e-01
-2.7513324192714e-01
 2.0477766888866e-01
-3.0144743268264e-01
 3.5248868993076e-01
-1.4568813734641e-01
 2.0972373607115e-01
-1.3003672504581e-01
 1.7170901299384e-01
-6.1722743726920e-01
 9.5623753565999e-01
-2.6983149330369e-01
 7.3522459821673e-01
 1.9025715248047e-01
-3.4718819678831e-01
 4.3103152817550e-01
-1.6787151667156e-01
 2.5017523247556e-01
-1.4940441037325e-01
 2.0736355613960e-01
-7.2536224907438e-01
 1.1135438457912e-01
-4.1783796474876e-01
 7.0066565396876e-01
-1.9479386094597e-01
-4.1461692646346e-01
 4.9954124924772e-01
-2.1090575016436e-01
 2.8100077532162e-01
-1.8415378423949e-01
 2.3334160210282e-01
-8.2568549955067e-01
 1.2170677742690e-01
 1.2913186687481e-01
 1.3406837489141e-01
-6.1744974909871e-01
-5.3018938442746e-01
 5.3055484734889e-01
-2.5234732435867e-01
 2.8958640445364e-01
-2.2490237143469e-01
 2.3689764132950e-01
-1.2496125900609e-01
 1.0981930861369e-01
-5.9319411362113e-01
 1.7618285302889e-01
 3.6243523373475e-01
-6.4420061792995e-01
 3.9280508462864e-01
-2.9648964245912e-01
 1.6343710541447e-01
-3.1304327814004e-01
 2.5384797368745e-01
-1.0545600110979e-01
 1.3847541012757e-01
-2.8712384032847e-01
 4.9439619065339e-01
-4.1465312086708e-01
-9.5923061116083e-01
 1.6502879437627e-01
-3.7811185487712e-01
 8.3479027309117e-01
 5.4752209710518e-01
-2.8026626158750e-01
-8.1803053914031e-01
-1.8784444436580e-01
-1.4835278987799e-01
-1.1479188822901e-01
-2.6823359179327e-01
-8.8297870033829e-01
-8.6775424112716e-01
-7.5488054692048e-01
-1.4060768076980e-01
 2.5072175238727e-01
-4.0759225421877e-01
-4.7535488999911e-01
-2.4677736902584e-01
-7.7960038043741e-01
-1.0875470678079e-01
-3.9381467204556e-01
-8.8845978326742e-01
-3.8675054359578e-01
 9.2210250537805e-01
-1.8055403191277e-01
-5.1743548681871e-01
 1.8079071226196e-01
 1.1779585553512e-01
-1.6443987173056e-01
-6.3122439970992e-01
-8.5714149301848e-01
-3.2323087443441e-01
-5.4716487031854e-01
-3.3283456396009e-01
-4.6973790555600e-01
-1.5225345994434e-01
 5.8817967857339e-01
 1.8973538018496e-01
-3.0357660829594e-01
-1.5601987181236e-01
-6.3203578184502e-01
-7.6311838062182e-01
-2.7774812741200e-01
-6.3176045153526e-01
-3.0599313158830e-01
-2.5202385281782e-01
-1.4397868886422e-01
 7.1668474106723e-01
-1.6161388633612e-01
-1.7969295756232e-01
-1.5525461192647e-01
-5.3525877874539e-01
-7.7999187357098e-01
-2.4272941183558e-01
-5.1333816459405e-01
-2.6373093348993e-01
-2.4977854009851e-01
-1.2235155896501e-01
 4.4131094178307e-01
-3.3598747698968e-01
-6.2876949740581e-01
-1.5739082412772e-01
-4.4495295876660e-01
-7.9228699324002e-01
-2.0482662010853e-01
-5.2556825262116e-01
-2.2590916244359e-01
-2.6114793003282e-01
-1.0128109728861e-01
 1.8691476047061e-01
-1.2440881116092e-01
-1.2140607936291e-01
-1.5626842972701e-01
-3.6631838369654e-01
-7.7056410119311e-01
-1.6090924815828e-01
-5.5310142630880e-01
-1.8131464945506e-01
-2.8337734972181e-01
-8.0917960624154e-01
 2.4074370426862e-01
 3.0008683255325e-01
-9.0649466015155e-01
-1.5561465354327e-01
-2.7823182406863e-01
-7.7365547870447e-01
-1.1745236950251e-01
-5.5245502157817e-01
-1.4035375263786e-01
-2.7531186146028e-01
-5.9322011797338e-01
 8.1418500955978e-01
 4.5411977401145e-01
 1.7285824871092e-01
-1.5526037849748e-01
-1.9091061029627e-01
-7.6220460867151e-01
-7.3195793751104e-01
-5.5078920515257e-01
-9.6128001503554e-01
-2.7721272290009e-01
-3.6867245495209e-01
-1.5651988313089e-01
 1.6100952832825e-01
-9.4974204485599e-01
-1.5526881824684e-01
-1.0221783215647e-01
-7.5642824327633e-01
-2.8197082662658e-01
-5.5454587631303e-01
-5.1519414443300e-01
-2.7521107857389e-01
-1.4330556355837e-01
-2.3751015599247e-01
 4.8384279540531e-01
-6.4332300574730e-01
-1.5695752860133e-01
-1.2368713650615e-01
-7.5790143969163e-01
 1.6960027566597e-01
-5.6265979656089e-01
-6.8265156569014e-01
-2.7615245902304e-01
 8.2471628350689e-01
 4.7185198524574e-01
 3.0387095224511e-01
 9.1268816506188e-01
-1.6107103170472e-01
 7.7630131521209e-01
-7.7239665090583e-01
 6.1615766091876e-01
-5.7974294535583e-01
 3.7329738537455e-01
-2.8046108319071e-01
 3.0546534252220e-01
-1.0308221561495e-01
-5.6586459557797e-01
-4.4562403355049e-01
-1.6899053388237e-01
 1.6626755095257e-01
-8.0956797326661e-01
 1.0451579841654e-01
-6.1208970007840e-01
 8.0028983191677e-01
-2.9036668799174e-01
 5.2055174992889e-01
 6.5717051212725e-01
 7.5823001306416e-01
 1.8681226948399e-01
-1.8297931055590e-01
 2.5230705749534e-01
-8.7816285985500e-01
 1.4461881497702e-01
-6.6875852075086e-01
 1.2018651494553e-01
-3.1951993403920e-01
 7.1625911627278e-01
-2.3487546001004e-01
 3.0340720170649e-01
 1.3232348702007e-01
-2.0534378962304e-01
 3.3131950819664e-01
-1.0098652909121e-01
 1.7967709694005e-01
-7.7329224797147e-01
 1.5622939231060e-01
-3.5638889936678e-01
 8.8996463454478e-01
 6.1081239892402e-01
 4.5968478047491e-01
 1.1230132221287e-01
-2.4237438859936e-01
 3.9750749159601e-01
-1.1852628703791e-01
 2.0669024089422e-01
-9.2322790978550e-01
 1.8425681468869e-01
-4.6797152095692e-01
 9.9557718057790e-01
-6.0504410455322e-01
 4.3118212179980e-01
 6.2540254144048e-01
-2.9491911564106e-01
 4.3909603765225e-01
-1.5406691593119e-01
 2.2283786934921e-01
-1.1795456915244e-01
 2.0023690479477e-01
-5.0273787569575e-01
 1.0363342875345e-01
-4.0989618383530e-01
-9.7883127384707e-01
 1.1336688966052e-01
-3.8227954129265e-01
 4.4064859033567e-01
-1.7274095568365e-01
 2.0763576108344e-01
-1.4070954402140e-01
 1.9297751031303e-01
-8.1882150998904e-01
 8.9984891045765e-01
-4.3910187985663e-01
 3.4287893704854e-01
 2.3555647449963e-01
-4.4203993256610e-01
 3.0396455702319e-01
-2.0897775901054e-01
 9.3857552239651e-01
-2.1633006172191e-01
 2.0802581556691e-01
-7.1090554145288e-01
 1.2169220139633e-01
 8.0773061850170e-01
-6.1962154157547e-01
 1.5092094240998e-01
-6.9207953395374e-01
 1.2829286756811e-01
-2.6468077779079e-01
 6.4368286829437e-01
 3.6429192995513e-01
-7.6924144137846e-01
-2.2768245622196e-01
-8.6964161834289e-01
-1.9457901623473e-01
-4.8173331531928e-01
-3.0302960735669e-01
-2.1638805500279e-01
-9.6919681088740e-01
 1.1393043473595e-01
-1.4846487785754e-01
 1.1705995331054e-01
-1.0069527676959e-01
-4.1917966493721e-01
-1.0397267826902e-01
-7.2906079064538e-01
-2.0596998880020e-01
-3.7185866211059e-01
-1.4849172879980e-01
-3.9266516472250e-01
-5.6744536892150e-01
-1.7273715723826e-01
 5.1296654098899e-01
 1.2839325414481e-01
 7.6216024593942e-01
-4.5016341363007e-01
-6.8570352832267e-01
-3.4379567450568e-01
-3.1929801427733e-01
 2.9124938028424e-01
-3.3433287667741e-01
 2.9095469895028e-01
-1.5700084038807e-01
-1.2468324983583e-01
 9.5680841721846e-01
 4.0522056196646e-01
-5.8199341361225e-01
-5.8512078418258e-01
-2.7202472204147e-01
-2.9554966037182e-01
 8.0215243300330e-01
-3.0445207000999e-01
-1.3123344339503e-01
-1.4837259418099e-01
 8.2670415652020e-01
 6.5458706163812e-01
-3.5236570605779e-01
-6.0171321308626e-01
-5.2761845310338e-01
-3.0800103452870e-01
-2.4793938193596e-01
-9.7783791752803e-01
-2.6327318722670e-01
-8.7780564213347e-01
-1.2423024808672e-01
-1.2872867919192e-01
-4.8416403265056e-01
 1.8922716041661e-01
-6.4301072211452e-01
-4.4812033528804e-01
-3.2743504037545e-01
-2.0457104945496e-01
-1.0987704105929e-01
-2.2616932200837e-01
-5.2231496890087e-01
-1.0177586619132e-01
-4.0079481481705e-01
 6.5241442212842e-01
-1.0052205853188e-01
-6.5316596887333e-01
-3.6782815524139e-01
-3.2251300742058e-01
-1.6073313465473e-01
-1.1445126362979e-01
-1.8233648846104e-01
-5.4782486787364e-01
-8.0849388444548e-01
 7.0329145610525e-01
-2.6310960924087e-01
 8.6734056216472e-01
-6.6748064204951e-01
-2.7873887649954e-01
-3.3392758750541e-01
-1.1725347383862e-01
-1.0884808772040e-01
-1.4062610884433e-01
-5.2423235129417e-01
-5.9089368226077e-01
 1.4720670293627e-01
-1.3078188705606e-01
-3.1267374214945e-01
-6.7023169948461e-01
-1.9095642355472e-01
-3.3404143956132e-01
-7.3388474008027e-01
-1.1300215230605e-01
-9.6250449897648e-01
-5.7644900807574e-01
-3.6909012720141e-01
 3.6733277823577e-01
 2.0523502432853e-01
-2.0158431232587e-01
-6.7328369019366e-01
-1.0239799894540e-01
-3.3477206644752e-01
-2.9005037781786e-01
-1.1646306987672e-01
-5.1562973058623e-01
-5.9979294650425e-01
-1.4608757311940e-01
-1.4668006020132e-01
 1.3852800335870e-01
 1.2076678124597e-01
-6.8316667462200e-01
-1.3661121592339e-01
-3.3617776289836e-01
 1.5403169450394e-01
-1.1931010387158e-01
-7.0865758474303e-01
-5.9900378266953e-01
 7.4847298219360e-01
-6.2341624917917e-01
 9.6213837203905e-01
 1.3976043629696e-01
-7.0456775936227e-01
 7.4041721880231e-01
-3.4433380224688e-01
 5.9103350232448e-01
-1.2598337288239e-01
 3.6485489126856e-01
-6.0071509988191e-01
 2.8872325841913e-01
-2.1158883022412e-01
-4.1098038600779e-01
-2.4998906888790e-01
-7.4722129596818e-01
 1.5848246791469e-01
-3.6679615645518e-01
 1.0086588830394e-01
-1.3994632581031e-01
 7.8242121814669e-01
-6.1798711897865e-01
 4.9080605660610e-01
 7.5944974050821e-01
-3.1064933340551e-01
-2.4351350200614e-01
-8.3003566961422e-01
 2.3674317628366e-01
-4.0297364798756e-01
 1.3930656705792e-01
-1.6527439525440e-01
 1.1643179347886e-01
-7.8945427574517e-01
 6.6714875720004e-01
 4.3435849535200e-01
 1.9256447022879e-01
 2.2325586203961e-01
-9.6638540718050e-01
 3.0402067672181e-01
-4.9276187848256e-01
 1.7143366512013e-01
-2.1645891660498e-01
 1.4938025170393e-01
-8.3703561844928e-01
 8.1393319243519e-01
 4.5397577841041e-01
 4.4045713257224e-01
 7.2119942667610e-01
-1.2101830335456e-01
 3.5474664512069e-01
-5.8180628830808e-01
 1.9260615361755e-01
-2.8782304191672e-01
 1.7240746598258e-01
-1.5525308697812e-01
 8.9617182256392e-01
-8.1626871061002e-01
 1.8824460219780e-01
 3.7247765635739e-01
-1.5415956383683e-01
 3.7992559339338e-01
-8.4539451253355e-01
 2.0010612263100e-01
-4.2699365513208e-01
 1.8196600034295e-01
-1.2111203849638e-01
 8.9830041010766e-01
-6.0258559142381e-01
-3.0945025238956e-01
 1.7001523556302e-01
-2.1061036870230e-01
 3.6813851656573e-01
-8.4240720818243e-01
 1.8284455522629e-01
-5.4840277941146e-01
 1.6905740961298e-01
-4.7460968930917e-01
 7.4240255350375e-01
-5.6039699790344e-01
 4.5197678065489e-01
 1.0980257501847e-01
-2.3281186784752e-01
 1.9658676290319e-01
-1.1301360364804e-01
 6.6665157177645e-01
-1.0830424421972e-01
 1.8488347194583e-01
-6.6772057289022e-01
 1.1335706164457e-01
 1.9081958235745e-01
 1.5756168071646e-01
 2.0532078641444e-01
-4.3312001341840e-01
 1.0377668480056e-01
-1.3685675599511e-01
 5.2275545515019e-01
-2.3852447794681e-01
-2.5641381379282e-01
 7.1069452406425e-01
 1.0995457397088e-01
-1.8055386416160e-01
 4.9108687951007e-01
-3.1719779677189e-01
 1.0805153953358e-01
-9.7507821630080e-01
 3.7984228225616e-01
-1.7333614542476e-01
 6.0579796387628e-01
 5.0957502106819e-01
-5.4210108624275e-01
 6.3904744836141e-01
-8.3165910373944e-01
 5.2000228425764e-01
-3.8524967588899e-01
 6.7512188792715e-01
-4.3257670893708e-01
 7.3737893215404e-01
-1.8910891174414e-01
 9.6690504994973e-01
 1.3164247253047e-01
-1.9231036034462e-01
 6.8012817470815e-01
-6.1946384962078e-01
 2.9070897542967e-01
-3.2819509550919e-01
 5.3582726978796e-01
-3.4120262473488e-01
-1.6612966869105e-01
-1.6793749313055e-01
 9.8960553293614e-01
 5.5375625959697e-01
 3.0872656861525e-01
 4.1971162193719e-01
-6.5489251608301e-01
 1.7560364591113e-01
-2.7607948055273e-01
 3.1387928073165e-01
-3.1306479445726e-01
 2.9001706083367e-01
-1.4347928866195e-01
-3.3644148664941e-01
-4.9398961483871e-01
 6.2006199870804e-01
 3.6155901436614e-01
-5.4552380229143e-01
 1.3257508727422e-01
-2.4275053434849e-01
 4.9238923729789e-01
-2.7138246795137e-01
 2.4754413772463e-01
-1.2286053919111e-01
-7.8455579706482e-01
-6.0986372202310e-01
 9.4230721316146e-01
 2.8667144814682e-01
-4.5073917920276e-01
 1.2472373387431e-01
-2.0524716275624e-01
 4.2157039494342e-01
-2.2970196476769e-01
 1.9872977067221e-01
-1.0235297597309e-01
 2.3111293965834e-01
 1.2559931596829e-01
 1.9518603720055e-01
 2.4710707025681e-01
-3.6757930323280e-01
 1.2591406859539e-01
-1.6236578676686e-01
 3.5172945183248e-01
-1.8405848632132e-01
 1.7155156096944e-01
-8.1846136815828e-01
-3.1913660353700e-01
 9.2055540707597e-01
-1.1760205439679e-01
 2.1380058168132e-01
-2.7949521111173e-01
 1.1193454953175e-01
-1.1816138706724e-01
 3.2930347322733e-01
-1.4113778413221e-01
 1.6606195779048e-01
-5.9668250166087e-01
-4.4398290721518e-01
-1.0958118178188e-01
-9.7386024923787e-01
 2.0149579609301e-01
-1.9173380337931e-01
 1.0529721066819e-01
-7.3780463550079e-01
 3.1698946969243e-01
-9.6462367585361e-01
 1.6060159458462e-01
-3.7204771261870e-01
 5.0934208700769e-01
 2.9373249726207e-01
-3.6502355466332e-01
 1.9652220870308e-01
-1.0305890420599e-01
 1.0078127735840e-01
-2.9194752048411e-01
 3.1401924357368e-01
-5.1613599770051e-01
 1.5954042368627e-01
-1.4649985654671e-01
-1.7968956943053e-01
-9.3848074182224e-01
 1.7243155586374e-01
 1.9875800233082e-01
-1.4084947642559e-01
 1.0049396588541e-01
 1.5060643695506e-01
 3.1757247388455e-01
-6.8809747538001e-01
 1.6164462913828e-01
 7.5940904865135e-01
-3.4557038423844e-01
-1.3210537603615e-01
-1.9788383713755e-01
 2.0551004426128e-01
 7.3234909003563e-01
 1.0668045912337e-01
 5.8038118918802e-01
 3.2831805748472e-01
 3.6896140618239e-01
 1.6653260568979e-01
 2.8999369048961e-01
-5.1710514396928e-01
-4.6214117602195e-01
 1.3798166710773e-01
 2.1033785416957e-01
 1.5631420997828e-01
 1.0959902508103e-01
 9.8075506089259e-01
 3.4458571617080e-01
 7.8548546922019e-01
 1.8370325285195e-01
 4.9010912593710e-01
 4.5400965972830e-01
 5.3934822916418e-01
-5.2665544044957e-01
 2.0414792825081e-01
 2.3262175315934e-01
 1.2000716130849e-01
 1.3340739238632e-01
 3.6144688636846e-01
 1.1579165279114e-01
 1.8896026216222e-01
 6.6486283374596e-01
-1.9741627495066e-01
-2.5182628335049e-01
-2.8874506138952e-01
 1.7733970758975e-01
 2.9590626633972e-01
 8.4861180249662e-01
 1.6040094607149e-01
 3.7657343440003e-01
 1.4689496907594e-01
 2.2564452539511e-01
 7.9945046836301e-01
-7.2187959413274e-01
 5.9035740028078e-01
 3.7534570991680e-01
 9.5078384254599e-01
 3.4147755866165e-01
 8.8342568360966e-01
 1.7595284835338e-01
 3.7211379575872e-01
 1.6686596177847e-01
 1.7876643598189e-01
 8.7278469025032e-01
-1.2256227933591e-01
-1.9956096237311e-01
 1.7218485751785e-01
-4.5059782824719e-01
 3.5675608229279e-01
-8.8331954720622e-01
 1.7653450235482e-01
 3.5431282565028e-01
 1.7266860703766e-01
 2.9253854673987e-01
 8.4717226261688e-01
-1.9894432238751e-01
-2.5065398975149e-01
-2.9017654707038e-01
-3.2875189523280e-01
 3.3769863013236e-01
 1.0220460157704e-01
 1.5135995243046e-01
 3.3892322014957e-01
 1.5562008762219e-01
-1.5998154602848e-01
 6.9044350482788e-01
-1.7705021476688e-01
-1.5510867330121e-01
-4.3761110186946e-01
-2.5948403692202e-01
 1.6734822289307e-01
-2.0176579339232e-01
 3.4488813982705e-01
-1.0840421727210e-01
 1.7208654792077e-01
 3.5680811334773e-01
 1.1517114231817e-01
-3.6678559495185e-01
 9.4325589006239e-01
-5.7495241206906e-01
-1.9314724156778e-01
 8.8742246865803e-01
-3.3760664034936e-01
 4.4585539991930e-01
 3.3512689151527e-01
 1.7542391150816e-01
-3.2742905609062e-01
 2.0505362738203e-01
-2.0936835391128e-01
 9.1254515908327e-01
-3.3164399055880e-01
 7.9340760904354e-01
-8.2160897892968e-01
 5.6421670451535e-01
-1.6538453933063e-01
-1.9549520422629e-01
 3.4789337209629e-01
-7.3266317058424e-01
 1.8001561350978e-01
-8.8509164620822e-01
 1.0413063638531e-01
-4.0559081387309e-01
 8.0085557997514e-01
-4.6331518516171e-01
 3.4261709986569e-01
-2.3343402453226e-01
-4.0793106739767e-01
 6.2174928833897e-01
-3.0424068212659e-01
 1.6470301784940e-01
-7.5300132652969e-01
 6.1787027687035e-01
-3.3659857431754e-01
 1.0868625722809e-01
-3.6159098235792e-01
 9.7517926368091e-01
-1.5493333767064e-01
-3.7391422423594e-01
 3.6307220251108e-01
 2.4814677222762e-01
 1.4922929182975e-01
-5.7870804976364e-01
 6.7550237299627e-01
-3.1818240266134e-01
 1.1007545201906e-01
-3.1847501041215e-01
 1.8220725612759e-01
-1.6539448031055e-01
-1.6019087098473e-01
 4.4167686001628e-01
 6.9253413767512e-01
 1.2423727010986e-01
-5.3620844646457e-01
 6.1280691826622e-01
-2.5524053143613e-01
 7.0391783572532e-01
-2.6710630496736e-01
 3.2341323285596e-01
-1.2894794981976e-01
 7.0606972417224e-01
-2.1822956853060e-01
 1.5522725791382e-01
 1.1476085729964e-01
-4.5948340232936e-01
 5.8810258354476e-01
-2.0621189977120e-01
 7.3683796056940e-01
-2.2977273552036e-01
 3.9833022664721e-01
-1.0279944495678e-01
-9.3950035773250e-01
 4.8513319716089e-01
-2.4595618620734e-01
 1.1152008195836e-01
-3.7504566780349e-01
 5.7434506981964e-01
-1.6154702236275e-01
 7.5875774214218e-01
-1.8691895472782e-01
 4.0484656000013e-01
-8.1199479402789e-01
 6.1245564284169e-01
-1.5662316821090e-01
-2.8137079255072e-01
 1.0836925406124e-01
-2.8446494002131e-01
 5.5338555978772e-01
-1.1788763845224e-01
 7.6139177849264e-01
-1.4384971219312e-01
 3.9314094002840e-01
-5.9082739690597e-01
-1.2624179045878e-01
-3.9056604494601e-01
 4.2493948897854e-01
 1.0634754078703e-01
-1.9431479911504e-01
 5.3987612411087e-01
-7.3734532325673e-01
 7.4787664189273e-01
-9.8385947399339e-01
 3.7967326333419e-01
-3.6664060759231e-01
 9.6570226316463e-01
-1.1458068787393e-01
 3.3339216803929e-01
 1.0542917949245e-01
-1.0371677715200e-01
 5.3484832366997e-01
-2.8874356799307e-01
 7.3978143417506e-01
-5.2299403388758e-01
 3.7343050266401e-01
-1.4077616790402e-01
 1.9347926581183e-01
 1.0106246555223e-01
 1.4175943405248e-01
 1.0629951887705e-01
-1.3192224339376e-01
 5.4104095723826e-01
 1.6064488028675e-01
 7.4442401551451e-01
-6.2471042113188e-01
 3.7769463367461e-01
 8.4336186903933e-01
-5.6087874789220e-01
-1.9905274260476e-01
-1.8465318250144e-01
 1.0946152426206e-01
 7.5792407785560e-01
 5.6210168807955e-01
 5.9887343875289e-01
 7.6398534913409e-01
 3.8962690325706e-01
 3.9040283351746e-01
 3.0522104207407e-01
-4.8111471404044e-01
 1.1286714022164e-01
-4.8162716897353e-01
 1.1549443152868e-01
 1.6007809775517e-01
 5.8934289856445e-01
 1.0038228864882e-01
 8.0893588574789e-01
 8.2234665115644e-01
 4.2467481412132e-01
 5.0857811295257e-01
 6.0748779460605e-01
 1.9381214976010e-01
 4.5612724209644e-01
 1.2428448923344e-01
 2.3667169210055e-01
 6.5055441897151e-01
 1.3634288138601e-01
 8.6429802248240e-01
 1.2060191278546e-01
 4.4458730110755e-01
 6.8742412709497e-01
-1.0397837647315e-01
-5.7327189870171e-01
-1.0091550533588e-01
 1.3343982056676e-01
 2.9722338367851e-01
 6.7488935983776e-01
 1.6286561663325e-01
 9.5371283719388e-01
 1.5239405066947e-01
 5.2337965193168e-01
 8.1347103664386e-01
-6.8629574001859e-01
 1.5311687532574e-01
-3.2781318553220e-01
 1.4324947682445e-01
 3.3822735136534e-01
 7.7945487989071e-01
 1.7736298754763e-01
 1.0161323741926e-01
 1.7172148680455e-01
 5.1282129665306e-01
 8.8654218582809e-01
 1.9849708899136e-01
 3.1139641646499e-01
 1.4430053289424e-01
 1.4717712202727e-01
 3.4758298146550e-01
 6.8282629409292e-01
 1.7520104222743e-01
 1.1307813804006e-01
 1.7575042363213e-01
 7.0029322183389e-01
 8.3611919241635e-01
-7.3285968222800e-01
-3.1119312855765e-01
-1.4323665951249e-01
 1.4602844013478e-01
 3.2296462594527e-01
 1.0446823511143e-01
 1.5226647960844e-01
 1.1686939812730e-01
 1.5557374920921e-01
 3.5337949002381e-01
 6.7001385991850e-01
 8.8226951786008e-01
-2.0231212538579e-01
-2.5427251450216e-01
 1.7372540842383e-01
 1.2185143325162e-01
 7.0833322337347e-01
 2.3408377480436e-01
 8.7959686524357e-01
 1.7050589779163e-01
 9.5013857044348e-01
 1.2112864583561e-01
 3.4369208867791e-01
 3.4981783095245e-01
-5.6156251523887e-01
 2.4812730849706e-01
 8.4272346736762e-01
 7.3196734568874e-01
 4.0856636749256e-01
 1.6772607608351e-01
-4.8030156241108e-01
-2.3332030751888e-01
 1.0416796298300e-01
-8.7316375556203e-01
 6.8259352516831e-01
-2.3484208091224e-01
 8.3779773559955e-01
-2.9302299713930e-01
-4.0493072975036e-01
-9.1504528135736e-01
-2.1684043449710e-01
-2.3310346708438e-01
-7.0202090668436e-01
 1.6022048970133e-01
-9.6157458018925e-01
 9.8392062227901e-01
-4.5481911699530e-01
 9.9054108866325e-01
-4.0464949183320e-01
 1.6343866806499e-01
-2.3497852248060e-01
-5.8251472222215e-01
 2.9965992794784e-01
-4.6543444012087e-01
 2.9412766528048e-01
-6.6033707006851e-01
 1.1882894868535e-01
-3.4003251980810e-01
 1.2832445875329e-01
-3.9129833248298e-01
-3.4976873576316e-01
-1.9571500607316e-01
-8.3898274612360e-01
-3.9031278209478e-01
-5.5023260253639e-01
 1.8931849389982e-01
-7.3640254821343e-01
 9.5430452452604e-01
-2.6593591873702e-01
 1.0166319076820e-01
-3.2238921326512e-01
 1.2090987946691e-01
-1.2159608733643e-01
 3.4518286666507e-01
 2.9038999937309e-01
 2.0328790734103e-01
 2.1651385462981e-01
-5.5750615056037e-01
 1.0812794653675e-01
-2.4901457620285e-01
 1.5363790931246e-01
-2.9221755512019e-01
 7.2675928291801e-01
-1.2691739106916e-01
-3.5704132792663e-01
 3.9078712054524e-01
 4.9480276646807e-01
 2.0477561534259e-01
-4.5638266424870e-01
 1.0601942057533e-01
-2.1130317253167e-01
 1.2660106814618e-01
-2.3293138937717e-01
 6.4230780020136e-01
-1.0647092083413e-01
 4.4105005563531e-01
 3.7549859936378e-01
-1.6621200469029e-01
 1.9949548643970e-01
-3.7165269600515e-01
 1.0251813480908e-01
-1.6764871046220e-01
 1.2059060038975e-01
-1.8618909611292e-01
 5.9845117318158e-01
-8.6260032609102e-01
 5.6649563512368e-01
-3.9026026605205e-01
-5.8208104135315e-01
 1.9492662107861e-01
-2.8498733563043e-01
 9.8737950496845e-01
-1.2224363966006e-01
 1.1865768116937e-01
-1.4278070945699e-01
 5.8311914775313e-01
-6.2877783211741e-01
 2.7903975787988e-01
-1.0090872907230e-01
-2.0207495616056e-01
 1.9146341513702e-01
-1.9583667987277e-01
 9.6082463776765e-01
-7.6038531487335e-01
 1.1713191971587e-01
-9.7969141023761e-01
 5.7117036011709e-01
-3.9191655787745e-01
 9.8591246928611e-01
-2.2361669807514e-01
-1.5040764044395e-01
 1.8907018058855e-01
-1.0412127964445e-01
 9.4899543752346e-01
-2.8955502099350e-01
 1.1572853555823e-01
-5.1741905834166e-01
 5.6604975096199e-01
-1.5000094138298e-01
-2.0632875562167e-01
 1.6221273862983e-01
-3.0078986989947e-01
 1.8955637227045e-01
-1.0936198394953e-01
 9.5725998972633e-01
 1.7852699977112e-01
 1.1593028374648e-01
-4.2239996611859e-01
 5.7445396733007e-01
 8.8246614846454e-01
 1.0844562823697e-01
 3.9637753799712e-01
 5.2488090642507e-01
 1.9458815060600e-01
 8.1827240114309e-01
 9.9773277645998e-01
 6.4440927625142e-01
 1.1780795588621e-01
 4.3184004201735e-01
 5.9242674639233e-01
 3.3059999990677e-01
-3.6795111228727e-01
-1.7557298930687e-01
-1.4101065692711e-01
 2.0493787367871e-01
 1.7023992445710e-01
 1.0550557541554e-01
 1.0674711202814e-01
 1.2534601186424e-01
 8.9544419443516e-01
 6.5219016812668e-01
 5.4315063521315e-01
-7.8414498608540e-01
 1.0268919232743e-01
 3.9910074892254e-01
 2.2298831417808e-01
 2.5126928586063e-01
 1.1717403478777e-01
 1.4453630128532e-01
 1.3284181693717e-01
 1.3062471521757e-01
 6.9109800353262e-01
 7.4609762410249e-01
 3.6541001344550e-01
-6.8840061689251e-01
 1.6180023358452e-01
 2.4381990450651e-01
 3.1479826745867e-01
 1.2559051625587e-01
 1.7071477412753e-01
 1.5082967607569e-01
 1.6495548659340e-01
 8.2042911724702e-01
 8.7401502428159e-01
-1.1151358157192e-01
-1.4632324757229e-01
-3.1685300271120e-01
 2.7334879845598e-01
 3.5789573459787e-01
 1.4624501371398e-01
 1.8431019509812e-01
 1.6259873647528e-01
 1.8525581253523e-01
 8.3909209515491e-01
 9.6101998592619e-01
-4.0525444328435e-01
-2.8500964609213e-01
-3.6440035017238e-01
 2.9431843216234e-01
 3.6480910772106e-01
 1.4445721236217e-01
 1.7869003343954e-01
 1.8928631816468e-01
 1.8880341898168e-01
 1.1112172629284e-01
 8.8628783158482e-01
 2.3285274533200e-01
-1.5804279543050e-01
-3.3576386029160e-01
 3.2094195880020e-01
 3.3637311745120e-01
 1.9865864476766e-01
 1.5148899219248e-01
 1.9769629894093e-01
 1.6474080655461e-01
 7.7815000028893e-01
 7.1198118326432e-01
-2.0643209364124e-01
-1.1302807648161e-01
-4.7013716704403e-01
 3.6314529787679e-01
 1.1695503832604e-01
 1.5486873684545e-01
 5.6591166356057e-01
 1.7741378036446e-01
 1.7287076972115e-01
 1.4037501793273e-01
 1.3471081311673e-01
 2.1792463666959e-01
-1.1676857397669e-01
-6.2222362678943e-01
 2.2349047111129e-01
 8.3706145816447e-01
 1.6221451703046e-01
 3.9050816512474e-01
 1.4853569763051e-01
 4.6187012547882e-01
-3.5464253062001e-01
-2.0653710071598e-01
-2.8391840890391e-01
 3.1332465662574e-01
-1.0033073815929e-01
-2.1035498708388e-01
-4.0859407621260e-01
-2.1671381563776e-01
-5.0305654840968e-01
 1.5333413927671e-01
 3.9178841936802e-01
 6.5172514906759e-01
 1.3647443308536e-01
-5.7337943612598e-01
 7.1679484451908e-01
-4.7656969606200e-01
 7.5267834646802e-01
-1.9397701699756e-01
 1.0682817522718e-01
-2.3331894180249e-01
 5.8411392042657e-01
-3.3122376369432e-01
 1.0364972768961e-01
 2.8380049099626e-01
-9.2757537855119e-01
 1.5282365152816e-01
-3.5849566413001e-01
 1.7874170790427e-01
-4.9420646838091e-01
 1.4473106098686e-01
-1.4106653522640e-01
 1.5962166484418e-01
-1.2281300108830e-01
 2.4543626679641e-01
 3.3359791400155e-01
-4.8079008634186e-01
 1.7407033302859e-01
-3.3329914799950e-01
 1.3956354087434e-01
-2.7944437091567e-01
-7.7862481459023e-01
-2.0208695150743e-01
-6.0390061007443e-01
 8.8088716009016e-01
 1.1316360175317e-01
 2.6164364915705e-01
-6.0809881280774e-01
 1.4575999083889e-01
-2.3418568924946e-01
 1.2531653734882e-01
-2.6364901652501e-01
 1.0047863026918e-01
-1.1210524225474e-01
-6.6719091189327e-01
 4.1848170978867e-01
-3.8590143450548e-01
 2.9250347572175e-01
-4.8013855967795e-01
 1.4270634123836e-01
-2.0596393702796e-01
 1.8217063289285e-01
-2.4329468173193e-01
 8.4397063872501e-01
-1.0129283440447e-01
 9.7280039926262e-01
-9.6761655762542e-01
-9.2709450142878e-01
 2.9146121640701e-01
-3.8499754571226e-01
 1.3942668210514e-01
-1.6566386565046e-01
 1.7276333072697e-01
-1.9685243082507e-01
 8.3938913941637e-01
-8.0795438025216e-01
-6.7389941283552e-01
 2.3295100115388e-01
 1.2496615884022e-01
 2.8610383385017e-01
-2.9294449353174e-01
 1.3715612248719e-01
-1.2333840216474e-01
 1.6555627427802e-01
-1.5129534000419e-01
 8.1232902518504e-01
-6.0687469125291e-01
-7.1757243159595e-01
-3.9817324784530e-01
-3.4497957875773e-01
 2.7826387923217e-01
-2.0156102853172e-01
 1.3466166281255e-01
-7.7852370161295e-01
 1.5885444745237e-01
-1.0437007850461e-01
 7.8663989053203e-01
-3.8512219489206e-01
 7.2343389959095e-01
 2.1766205645594e-01
-7.6732714691767e-01
 2.7147136357538e-01
-1.0693046963177e-01
 1.3303343447553e-01
-2.9407743684153e-01
 1.5376055706060e-01
-5.5673737327560e-01
 7.6615816332675e-01
-1.4173607342203e-01
 3.2864878353467e-01
 3.7335518249075e-01
 7.7203665010441e-01
 2.6842179790112e-01
-9.0926679824488e-01
 1.3334687303852e-01
 1.9711426913602e-01
 1.5246427835855e-01
-4.7697203231800e-01
 7.6543869014802e-01
 1.0474251563846e-01
 6.0054635960330e-01
-5.1541954840424e-01
 6.0691181220192e-01
 2.7347640004503e-01
 9.0512870147368e-01
 1.3853833898466e-01
 7.0489332203643e-01
 1.5263086276658e-01
 4.6940129597982e-01
 7.7509433958500e-01
 3.7145024970728e-01
 1.8071786742849e-01
-3.8363816247042e-01
-2.4934955901272e-01
 2.8509473105858e-01
 1.8700768664030e-01
 1.4603103428611e-01
 1.1643409182934e-01
 1.6327347605607e-01
 9.8630750227682e-01
 8.4569209002758e-01
 6.0127442063020e-01
-9.7459610911080e-01
-1.2610330057190e-01
 1.1710018737554e-01
 3.1242129286984e-01
 2.7626274259636e-01
 1.6414698566890e-01
 1.5984299021913e-01
 1.7155185894289e-01
 1.4504926784699e-01
 8.9121985676215e-01
 8.4253926273430e-01
-5.6215882643373e-01
-4.7956294968107e-01
 1.1135433937784e-01
 3.4268424603573e-01
 3.4654693169850e-01
 1.7867561257782e-01
 1.8872689831454e-01
 2.0003032467638e-01
 1.8521630086053e-01
 1.0795079999970e-01
 9.7189768211390e-01
 1.0015317568335e-01
-2.6525683776216e-01
-8.2975347513031e-01
 3.9385705402288e-01
 3.9435931400419e-01
 2.1032702353865e-01
 2.0482708005215e-01
 2.1460484933975e-01
 2.0892673673191e-01
 1.1289552100481e-01
 1.0871211022969e-01
 3.1983964088322e-01
-1.3659592120602e-01
-6.6732643716483e-01
 4.3159757888043e-01
 4.0080074252416e-01
 2.1653811269483e-01
 1.9794556791677e-01
 2.5968328551929e-01
 2.1408998838198e-01
 1.4898080396828e-01
 9.8116886088970e-01
-4.8888031210087e-01
 4.4066042047958e-01
-4.3645913706120e-01
 4.8990043032139e-01
 3.6680794849083e-01
 2.8952920514181e-01
 1.7150950663460e-01
 2.6839429046133e-01
 1.8498797067857e-01
 1.1201441761766e-01
 7.9111729701808e-01
 7.4837054955812e-01
 1.5398381354725e-01
-1.2346081188636e-01
 5.4132100647586e-01
 9.5490124449702e-01
 2.3141595954859e-01
-6.1294466705064e-01
 2.6174358178691e-01
 1.7777875333831e-01
 1.9350474748090e-01
 1.5252658577234e-01
-1.4961989980300e-01
 1.2018381082002e-01
-7.8967865232982e-01
 3.9838096043001e-01
 8.9603927072337e-01
 2.4699467130395e-01
 3.9141564033767e-01
 1.0103680045392e-01
 9.9117762608625e-01
-3.0097452308198e-01
-4.6535192618569e-01
-1.6931630071972e-01
-3.7700229698297e-01
-2.3328599034200e-01
-4.1301340735018e-01
-2.0774679681431e-01
-3.3902116104612e-01
-1.4735733031366e-01
-2.8590411288443e-01
-1.8973538018496e-01
 3.6049722235143e-01
 8.0996663216269e-01
-1.1253103526090e-01
 7.8545286637716e-01
-3.5403500570358e-01
-6.5747955811497e-01
-1.2229517364246e-01
-1.1586764772174e-01
-1.3531132969418e-01
 2.9978190069224e-01
-7.8821497939696e-01
-2.9311405733146e-01
 2.2294339862598e-01
-1.0476794411729e-01
 1.6807267273926e-01
-1.9601705602135e-01
 1.6995678964688e-01
-3.5970335634349e-01
 2.8407411549125e-01
-1.3541864765812e-01
 4.0538319229233e-01
 6.7220534694101e-01
-2.2643562372360e-01
 3.7578183237881e-01
-7.1073384621343e-01
 1.6935214221236e-01
-3.2252452301259e-01
 3.1242177080390e-01
-4.1033996012351e-01
 1.5536731846504e-01
-9.0700559145125e-01
-1.7595246006724e-01
-1.5776496862380e-01
-1.8487002293593e-01
 4.5421674786665e-01
-4.1424066718085e-01
 2.0544769081503e-01
-3.1041159593062e-01
 2.2484941925169e-01
-2.4860512492651e-01
 5.1424749635110e-01
-1.9301976302509e-01
-6.5702651652622e-01
 6.2612675461038e-01
-1.3810025172034e-01
 3.7282702002784e-01
-4.6943585899233e-01
 1.9258251342756e-01
-2.1766487193826e-01
 1.6895976146714e-01
-2.1468573819332e-01
 1.1080771809038e-01
-1.0786917234389e-01
 2.3482463803320e-01
-1.7455654977017e-01
 2.0283389768130e-01
 3.7165071315136e-01
-3.8610123104482e-01
 1.9053501005306e-01
-1.7234681835358e-01
 2.0568499437133e-01
-1.9131508629473e-01
 1.0350855281200e-01
-8.8720822019246e-01
 1.1689054672109e-01
 3.6910815929322e-01
 4.6937483739150e-01
 3.6312216744500e-01
-3.0284389547528e-01
 1.8402900292404e-01
-1.2760850384261e-01
 2.0516472313201e-01
-1.5323187200260e-01
 1.0012260242473e-01
-6.4883622293026e-01
 2.6705254761034e-01
 5.9777656186578e-01
 8.3085461796174e-01
 3.5325538053212e-01
-2.1245209093022e-01
 1.7708171622816e-01
-8.1865158204231e-01
 1.9956343222589e-01
-1.0972324124944e-01
 9.5877256070098e-01
-4.1013818648263e-01
-1.9441100205381e-01
 4.7590546141483e-01
-6.9564274859154e-01
 3.4297842431242e-01
-1.1490861844401e-01
 1.7141888332711e-01
-3.1455199559041e-01
 1.9172582783284e-01
-6.1709967872411e-01
 9.1293664522345e-01
-1.5037675396776e-01
-2.2701160612773e-01
-2.5284780508488e-01
-1.5000868792579e-01
 3.3477617744158e-01
-1.0828702205625e-01
 1.6827496490134e-01
 2.0678680043709e-01
 1.8765262277725e-01
-7.6486481231486e-01
 8.9618924292809e-01
 1.0739856006614e-01
-2.4635106237944e-01
-8.6115298648503e-01
-2.1024458893683e-01
 3.3765587058973e-01
 9.8523593170956e-01
 1.7261298859174e-01
 7.8100419004095e-01
 1.8215182755025e-01
 4.9573809097207e-01
 8.9077168977223e-01
 4.1534197373023e-01
-1.2875747831213e-01
 5.6966353834641e-01
-1.9898159183719e-01
 3.4767221048435e-01
 2.0670982698289e-01
 1.8044627902224e-01
 1.2973117898667e-01
 1.9476187065646e-01
 1.0912660967167e-01
 9.7680968466616e-01
 6.6576053276899e-01
 1.3168990637552e-01
 2.7306139933816e-01
 1.3324675293257e-01
 3.8382592360973e-01
 3.0992824634827e-01
 2.0356462134199e-01
 1.8147085914585e-01
 1.9917830073915e-01
 1.6403892924065e-01
 1.0359676915926e-01
 9.6290662116347e-01
 5.3654455010876e-01
-3.6982813729838e-01
-2.5907688537899e-01
 4.2050395831598e-01
 3.9336351954360e-01
 2.2239143518416e-01
 2.1462998951566e-01
 2.3894440584432e-01
 2.1304709293181e-01
 1.2814025873075e-01
 1.1062180136868e-01
-1.6449379835678e-01
 2.2087231132603e-01
-3.9257944226163e-01
 4.9617548319075e-01
 4.5219393893228e-01
 2.6691476672235e-01
 2.3638657582591e-01
 2.5305464071074e-01
 2.4351878916728e-01
 1.3719953990328e-01
 1.2813743140059e-01
 2.3670843930790e-01
-2.9905006422581e-01
-5.0880252702029e-01
 5.5106708259144e-01
 4.6197643550701e-01
 2.8244852445584e-01
 2.2745473346763e-01
 3.2145331384831e-01
 2.5231015679599e-01
 1.8342227186791e-01
 1.1426770488265e-01
-4.2918142997839e-01
 2.5928017328633e-01
-2.8957007148014e-01
 6.4850288612663e-01
 4.2035660320130e-01
 3.7542211303946e-01
 1.9474368046509e-01
 3.2958441310775e-01
 2.1521730102703e-01
 1.4804651517744e-01
 9.1619158066867e-01
 2.5424540944785e-01
-2.5134516863645e-01
-6.3412274563246e-01
 6.9932402158273e-01
 8.4696189530271e-01
 2.9200276413940e-01
-3.2104937948159e-01
 3.3104964716990e-01
 1.7553960880635e-01
 2.3291734309468e-01
 1.7777143814487e-01
 3.1983964088322e-01
 1.4354836763708e-01
 6.9584095430120e-01
 5.4274115445077e-01
 9.7799612022414e-01
 3.0798855799167e-01
 4.0380062966019e-01
-9.6016944395316e-01
-1.0984052209451e-01
 3.7188134516253e-01
-4.8380302895236e-01
-3.6193965737957e-01
-5.7651689274054e-01
-7.0349050635143e-01
 7.4443991518724e-01
-1.1097486611026e-01
-7.5950745608233e-01
-2.4670773072821e-01
-9.9136736146643e-01
 2.1892921774503e-01
-1.6815806288661e-01
-7.0298216791440e-01
-7.8012983856849e-01
 5.8357298581634e-01
-1.1355578363985e-01
 1.4316752255654e-01
-7.1064609282037e-01
 4.4396700301542e-01
 2.7946607713748e-01
-9.2699285747511e-01
 4.4647445462953e-01
 3.7047188233830e-01
 3.9169693145536e-01
-1.0617007708029e-01
 1.9454204992390e-01
-4.8131467651468e-01
 2.9789294150984e-01
 1.1154306550436e-01
-1.0393953547085e-01
-2.7620881175411e-01
-4.5644911461640e-01
 1.0896231833479e-01
-6.5268970783627e-01
 3.9917956068012e-01
-9.3567305780064e-01
 2.3491220849781e-01
-1.1385476587746e-01
 1.7954493752707e-01
-3.7734976670907e-01
 2.2828423188402e-01
-1.1351501787710e-01
 5.2144703485690e-01
-1.6750923564901e-01
-1.9618638311125e-01
 3.9017362100025e-01
-6.7947762021007e-01
 2.1190004155760e-01
-2.1774374092326e-01
 3.2609195126501e-01
-3.5286652431678e-01
 2.0060933737286e-01
-5.1605960606338e-01
-1.6225085511246e-01
-5.0626820444211e-01
-7.2424705122032e-01
 5.4246399949105e-01
-4.1279211975603e-01
 2.4683996055806e-01
-2.4639304335285e-01
 3.2352655038547e-01
-2.4372091940758e-01
 1.0776704761545e-01
-1.5561937049403e-01
 3.0933643233727e-01
-2.5829083880394e-01
 2.1770101997151e-01
 4.8655108351529e-01
-3.8547654273202e-01
 2.3072885547747e-01
-1.8770633674638e-01
 2.4350838890168e-01
-1.8851487799367e-01
 1.2967173847630e-01
-1.0539151377229e-01
-9.7049646964609e-01
-1.6581516975450e-01
-3.4355656340634e-01
 4.6241629536699e-01
-3.0813514981800e-01
 2.2232541619881e-01
-1.4177922237422e-01
 2.4171894388115e-01
-1.5236007357140e-01
 1.2615985561046e-01
-7.4277828847551e-01
 2.8107941321687e-01
 2.5960543393808e-01
-1.4766833589253e-01
 4.4058057994563e-01
-2.2308867120758e-01
 2.1227774640164e-01
-9.4954940882239e-01
 2.3720289205386e-01
-1.1499807636529e-01
 1.1696305192955e-01
-5.4065521836018e-01
-5.0530597501402e-01
 5.6100686162547e-01
-1.3137142198735e-01
 4.1527484169155e-01
-1.2853723650133e-01
 2.0148291737620e-01
-3.9373757242487e-01
 2.2023600099661e-01
-6.7934795050487e-01
 1.0809633569197e-01
-2.3677531494570e-01
 3.0835387411845e-01
-1.8506653457970e-01
 2.3425543189265e-01
 3.9242132814748e-01
-1.9662667314693e-01
 1.9274273720954e-01
 1.7293943635615e-01
 2.1215628977622e-01
-1.1206769537745e-01
 1.0285489795158e-01
 4.2398210759931e-01
 8.6371866913460e-01
-1.5324637293218e-01
 3.4765401084243e-01
 3.8748226239315e-01
 1.0191538237056e-01
 1.9431270134212e-01
 8.5467564580526e-01
 1.9613758616106e-01
 5.1512506768163e-01
 9.8174510561888e-01
 4.3187766853414e-01
-1.9969648764467e-01
-1.7909664636745e-01
 9.3858026819355e-01
 3.8916394498480e-01
 2.2663501908624e-01
 1.9943980201129e-01
 1.4320299850890e-01
 2.1226565938335e-01
 1.2072843780204e-01
 1.0689817456234e-01
 7.0171614883750e-01
-6.3051438527716e-01
 1.1735810890798e-01
-1.7760248024849e-01
 4.3083338490438e-01
 3.5091512044519e-01
 2.2611220184874e-01
 2.0881686851983e-01
 2.0627337893838e-01
 1.8576871874427e-01
 1.1004511065140e-01
 1.1180433463711e-01
 7.5182644398292e-01
-1.9868682437155e-01
-2.4194649105372e-01
 4.6868851564862e-01
 4.5314309260338e-01
 2.4859199084074e-01
 2.4804069073482e-01
 2.6240383167764e-01
 2.4750655963330e-01
 1.4025666023924e-01
 1.2695920251855e-01
-8.9541546920147e-01
 1.7354011023346e-01
 1.8863762548532e-01
 5.7075906009200e-01
 5.3326634442142e-01
 3.0867891693235e-01
 2.8328036112695e-01
 2.6986875312286e-01
 2.8830259159094e-01
 1.4810475641432e-01
 1.5630648019088e-01
 5.3003933707385e-01
 7.2777070828089e-01
 2.9707139526103e-01
 6.4094994153045e-01
 5.4808111162833e-01
 3.3610068532809e-01
 2.7320803749687e-01
 3.6753649460177e-01
 3.0677924988373e-01
 2.1112601532695e-01
 1.3799442474646e-01
-6.9674897362065e-01
 7.8279396853453e-01
-2.2165158163751e-01
 7.8433129767187e-01
 4.9547860302123e-01
 4.4793281880178e-01
 2.3261625370671e-01
 3.6761266883902e-01
 2.5398810774593e-01
 1.7166276433807e-01
 1.0750387212771e-01
 6.0541849311591e-01
-5.8411392042657e-01
-4.7807894795748e-01
 8.2329184511162e-01
 3.5924463712987e-01
 3.2705726774534e-01
-7.3225070701079e-01
 3.7519747282332e-01
 1.5606363472361e-01
 2.6313190229846e-01
 2.0574430515872e-01
 2.0892575863796e-01
-1.8745855562274e-01
-6.4618449480136e-01
 6.3934254743542e-01
 1.1249507228404e-01
 3.3650104193177e-01
 4.7340616002276e-01
-2.7495367094232e-01
 1.9840899756485e-01
 3.7947076036993e-01
 1.6672043444712e-01
-1.0858978409576e-01
 6.3829457145168e-01
-9.2059970226765e-01
 8.6971556048909e-01
-1.1953281528759e-01
 8.6913180040971e-01
-1.0161792121466e-01
-7.9776951104199e-01
-7.2133325788176e-01
-2.1057239068742e-01
 9.1286197935830e-01
 7.9640117972379e-01
 2.8342353489591e-01
 4.1986531583189e-01
 6.1510320009184e-01
 1.0866706325874e-01
 4.7887586182793e-01
 7.4136707923500e-01
-3.2897404418641e-01
 2.2619167823479e-01
 1.9380113833178e-01
 2.5710057107232e-01
-8.0073499671200e-01
 1.3364652957548e-01
-1.7823125770514e-01
 4.1346673639455e-01
-2.7079980664099e-01
 5.0471388001364e-01
 4.3817145925701e-01
-4.6837533851374e-01
 3.0981077078773e-01
-2.3844316278388e-01
 5.8335522643441e-01
-2.6066646535376e-01
 3.1589228534164e-01
-4.6454973748765e-01
 8.2388061652527e-01
-1.2783140253325e-01
 2.1142725184478e-01
-2.6157726744052e-01
 2.5663065422732e-01
 2.1662359406260e-01
-6.6353172956113e-01
 6.7909129721990e-01
-6.4164619270062e-01
 3.1822406191238e-01
-1.7561733189721e-01
 2.4780550610354e-01
-3.0601449402661e-01
 1.4424803836089e-01
-2.4896190612101e-01
-1.4056681166275e-01
 1.7284893134850e-01
-1.6534083130404e-01
 4.3068084135193e-01
-6.0235992015729e-01
 2.4707973063614e-01
-1.6095670328397e-01
 2.8147871411550e-01
-3.0303490884467e-01
 1.9679903069926e-01
 4.2565639344292e-01
 2.1694885471435e-01
 2.2285775655439e-01
 2.0746208570510e-01
 5.7258498360488e-01
-4.0373844226957e-01
 2.8175564407981e-01
-1.8458313864080e-01
 3.5494549973180e-01
-2.3207686775642e-01
 1.4932696869195e-01
-6.5715662984904e-01
-1.0383946306980e-01
 4.3449402062357e-01
 1.3460369971407e-01
 5.8000949151311e-01
-3.3391396495461e-01
 2.7257715604437e-01
-1.5104214845511e-01
 3.1941604771937e-01
-1.8779637228385e-01
 1.4477480669330e-01
-9.4595491117184e-01
 4.5793989260356e-01
 1.5687050183150e-01
-7.1143991305783e-01
 5.2889363027608e-01
-2.6014594938163e-01
 2.4799390106566e-01
-1.1017335912324e-01
 2.8335623381704e-01
-1.4120246394934e-01
 1.3828637333502e-01
-6.1017476602085e-01
-4.8097918876888e-01
 1.2791552756256e-01
 2.8866882842427e-01
 4.8586497558405e-01
-1.6278325204137e-01
 2.2698815772927e-01
-5.3904134503107e-01
 2.5176820596361e-01
-9.3186618424255e-01
 1.1947157406147e-01
-2.9639565708699e-01
-3.3464577680123e-01
 8.7583206746095e-01
-3.2232652961636e-01
 4.3761530957863e-01
-4.4520348310861e-01
 2.0679592466243e-01
 4.4297955061268e-01
 2.3484252024641e-01
-3.1244483345072e-01
 1.0791519431492e-01
-3.5292643197149e-01
 3.7154253198363e-01
-7.2641545556529e-01
-1.0664483619110e-01
 4.1687137522259e-01
 9.5440751958438e-01
 2.0216868756458e-01
 8.9713299200795e-01
 1.9669689359780e-01
 4.0287004480827e-01
 9.6018780696747e-01
 4.5269530025314e-01
 1.7689436070459e-01
-8.9785492408956e-01
-6.6343008560746e-01
 3.9850295142870e-01
 2.4231118402487e-01
 2.0053112819900e-01
 1.5184758504343e-01
 2.1818628684539e-01
 1.2489210989209e-01
 1.0451466734403e-01
 7.1911410605701e-01
-2.7764384758280e-01
-1.5734484028196e-01
-2.3077920867712e-01
 4.4329033004716e-01
 3.9429524228780e-01
 2.3005261719605e-01
 2.4078543767885e-01
 1.8826764419071e-01
 2.0349687764883e-01
 1.0220227293773e-01
 1.3130802278428e-01
 3.4155078938725e-01
-1.9190378452993e-01
-1.3298417271892e-01
 4.6944103380878e-01
 5.2290804979235e-01
 2.5150827376774e-01
 2.8487950870293e-01
 2.6629796206629e-01
 2.8373695901020e-01
 1.3640859529935e-01
 1.4583188481947e-01
-9.4176511207522e-01
-9.5999326110013e-01
 1.6564576316505e-01
 5.9714306920425e-01
 6.3523448537853e-01
 3.2674358831110e-01
 3.4440465629418e-01
 2.4921215909250e-01
 3.3888552273839e-01
 1.4202765273542e-01
 1.9451050688791e-01
-3.0899761915837e-01
 1.8485647040878e-01
 1.2210826967618e-01
 6.7348329458043e-01
 6.6299078713193e-01
 3.5796569580516e-01
 3.2795218187668e-01
 3.7988552860504e-01
 3.7060246508850e-01
 2.1313969920150e-01
 1.6721356034966e-01
-5.4977181661309e-01
-3.3515399656958e-01
-2.7796233197097e-01
 8.5272066588283e-01
 5.8674209976865e-01
 4.8620938759184e-01
 2.8227634901366e-01
 3.5420697540869e-01
 2.9507646322631e-01
 1.7363011307896e-01
 1.3023382419948e-01
 1.1737030618242e-01
-1.6311821685044e-01
 4.3471086105806e-01
 8.6899323432658e-01
-5.8003839799078e-01
 3.1710271268807e-01
-1.4572222019802e-01
 3.7293261225789e-01
 1.1120866308628e-01
 2.5981250857434e-01
 2.2564081612924e-01
-7.9363599025939e-01
 3.7058030255555e-01
 1.1633489310770e-01
 6.8157535066443e-01
 1.4826825202552e-01
 2.8109221029648e-01
 8.3593112337006e-01
 3.6103932343767e-01
-3.8966226079129e-01
 4.4690813549852e-01
 8.6061748142691e-01
-8.6602595523011e-01
 8.8860041288676e-01
-1.7244560776253e-01
 1.6563151223514e-01
-3.3253783643800e-01
 2.7551267526121e-01
-3.5318045283783e-01
-1.5449880957918e-01
 2.0227146780433e-01
 5.5023260253639e-01
 1.1053679164995e-01
 2.7182697245498e-01
 2.7336754580403e-01
 1.7787369731881e-01
 6.0175629841974e-01
-6.7986961731298e-01
 2.9492368523570e-01
 5.0443448490090e-01
 1.7120229929904e-01
-1.6794291651800e-01
-1.3330265710709e-01
 1.8005998860464e-01
 1.5075078364911e-01
 8.8636617692368e-01
 3.9140436283480e-01
 1.4828318378291e-01
 3.8536783636509e-01
 8.9278315363317e-01
-1.0675627351736e-01
 3.9627589404345e-01
 1.8039768897443e-01
-2.0574091475628e-01
 3.9898508119189e-01
-2.9259240271109e-01
 1.1615593659925e-01
-1.1761044377576e-01
 2.1477284390245e-01
 1.7547658995681e-01
 1.4336469827229e-01
 4.2200422405824e-01
-1.5504091066543e-01
 1.3059215167588e-01
-1.5097515251861e-01
 4.6253977482717e-01
-3.5631495264967e-01
 3.4079602660366e-01
-4.1155286153077e-01
 1.0555458355082e-01
-1.2511330275480e-01
 9.7368267803355e-01
-8.8204513500809e-01
 1.4690939437179e-01
 1.1167282376601e-01
-2.0708261494473e-01
 9.5471059472441e-01
-4.7818884728231e-01
 4.3695208392620e-01
-2.3306435946990e-01
 3.2080517828537e-01
-1.9876985296096e-01
 1.7838360105272e-01
-3.5201145329949e-01
-8.0773061850170e-01
 3.5344990823027e-01
 4.4614919397779e-01
 6.4332080201853e-01
-4.7164242941464e-01
 3.2378314703451e-01
-1.5116559108186e-01
 3.7662169984234e-01
-2.6718084870162e-01
 2.0279322404448e-01
-1.1097032723355e-01
-4.3920352381030e-01
-3.1025122792031e-01
 1.9390278228545e-01
 5.6948355485443e-01
-3.7139024261161e-01
 2.9875631144837e-01
-1.5531383936974e-01
 3.4896451581327e-01
-2.0395812909162e-01
 1.6977893577253e-01
 2.4401266000051e-01
 3.2173699468507e-01
-1.7211709488207e-01
-2.3879552848993e-01
 6.0042793547008e-01
-3.0248034289193e-01
 2.8906865820757e-01
-1.5372259251951e-01
 3.2327600632005e-01
-1.7475125041527e-01
 1.3784803939203e-01
-3.7230676940006e-01
-5.1757101209027e-01
-2.1006417091907e-01
-4.7975946132484e-01
 5.3919927944505e-01
-2.2619787177770e-01
 2.5468039080299e-01
-8.1288364835324e-01
 2.6656483439856e-01
-1.5902139173566e-01
 1.0729315492914e-01
-2.5947122187278e-01
-2.1846673775583e-01
-4.9195673576530e-01
-2.9434733730266e-01
 4.5794667949322e-01
-9.7571138911117e-01
 2.1214661486749e-01
-3.1164942841393e-01
 2.5181111746654e-01
-8.6789057401849e-01
 9.5082766132268e-01
-3.9763330891303e-01
 1.4047194397265e-01
-2.1318125216496e-01
-3.1794228708137e-01
 4.0172895010038e-01
 6.9962899389671e-01
 1.9600733662452e-01
 9.6316376140209e-01
 1.5826856816698e-01
-4.4633139266903e-01
 7.2689522784000e-01
 6.0779543675764e-01
 4.3198680309969e-01
-1.5170360085324e-01
 4.8885659517835e-01
 3.6071172537487e-01
 2.4444757287636e-01
 1.7962029215349e-01
 1.4304369871674e-01
 2.1636315153746e-01
 1.1125594771239e-01
 8.7526301730909e-01
 4.4755819716755e-01
-2.8121493848843e-01
-4.6214117602195e-01
-9.5111635581291e-01
 3.9681146115980e-01
 4.3356768185781e-01
 2.0890324719843e-01
 2.8188721424044e-01
 1.1191066761429e-01
 1.9908663997848e-01
 6.6968151274902e-01
 1.7702953172311e-01
 1.4772254600115e-01
-7.3752852783326e-01
-4.3892569700360e-01
 4.0092477454998e-01
 5.8595161681294e-01
 2.1378156035058e-01
 3.0257342026081e-01
 2.4992747095869e-01
 3.1163358784408e-01
 1.1351652774795e-01
 1.3069355595966e-01
 4.2297437254091e-01
-1.1226913496087e-01
 5.9631119486703e-01
 5.2326275186555e-01
 7.4664949550854e-01
 2.9185025952243e-01
 4.2186335583106e-01
 1.2994917912463e-01
 3.6560803856374e-01
 7.8171457686629e-01
 2.6349919325270e-01
-2.3584107756991e-01
 1.1132045805995e-01
 1.2484588016171e-01
 5.7002719201888e-01
 7.7135028510334e-01
 2.9741612655975e-01
 3.6452390214708e-01
 3.1341355049273e-01
 4.3048371450564e-01
 1.7025058161125e-01
 1.6929543495205e-01
 1.5227619512559e-01
-1.0150842839896e-01
-3.1685808490889e-01
 7.3343279090049e-01
 6.9076888421430e-01
 4.3120191679588e-01
 3.6514388132551e-01
 2.3345430683001e-01
 3.1728544780406e-01
 9.8852322007494e-01
 1.5291329970198e-01
 1.3495606542013e-01
 7.7520455332714e-01
 1.3196908843494e-01
 7.2348599229224e-01
-2.2136141504160e-01
 2.5302516406662e-01
-2.0352181656165e-01
 2.1413653980275e-01
 6.3299950507112e-01
 1.3427701484416e-01
 2.1537688432991e-01
-1.8908485888147e-01
-2.2204460492503e-01
 6.2016364266171e-01
 7.8375975643121e-01
 2.9026390597949e-01
 9.4413937264868e-01
 3.1185574245517e-01
 3.4651101432637e-01
 7.3725747729014e-01
-1.4007892068513e-01
 1.3532417457740e-01
-3.2739812530214e-01
 2.0564637006744e-01
-7.8394379961821e-01
 7.5843556999189e-01
-9.0352969213600e-01
 1.3765097130858e-01
-2.3248716585211e-01
 2.7828420449093e-01
 3.8717876018994e-01
 8.2670415652020e-01
 5.7380511482680e-01
-1.8559548374342e-01
 3.3146460309281e-01
 1.5476386885815e-01
 1.3301855740355e-01
-1.0180667972235e-01
 9.6800048518586e-01
-4.6942873164701e-01
-8.1061053052236e-01
 4.6036240683271e-01
 4.6713867041075e-01
 4.3516444488245e-01
 1.4478119836409e-01
 4.6689367401778e-01
 1.7735403613428e-01
 1.3098490502506e-01
-1.0909533218129e-01
 8.7116033358592e-01
-5.0253889589125e-01
-1.5509512077405e-01
-5.3857742918217e-01
 1.8973538018496e-01
 9.5219088551285e-01
 1.0621107490585e-01
 3.7090906982274e-01
 2.0541735907016e-01
-2.0134047213016e-01
 1.5582111860499e-01
 1.0427491880760e-01
-1.0257491453974e-01
-1.7003000570004e-01
-8.1288057882101e-01
 7.8875708048320e-01
 3.7152278674105e-01
 2.2088319871382e-01
 5.9447681440685e-01
 2.2882284606362e-01
 1.3575519112274e-01
 5.9732215319896e-01
-1.0850230769985e-01
 3.7481787305327e-01
 1.4075654704293e-01
-6.2748200732599e-01
-1.5891693343206e-01
 1.7087499315596e-01
-1.5701805008645e-01
 2.1697456788382e-01
-2.9188043971526e-01
 3.2234620025946e-01
 3.1467335766545e-01
 3.1468410614991e-01
 5.9482423022387e-01
 7.3508907294517e-01
-1.1817803680092e-01
-3.7567605276623e-01
 7.8779482840021e-01
-4.4844183769767e-01
 4.6029086924775e-01
-2.6842788283641e-01
 1.2247388575060e-01
-5.4637791726821e-01
 1.1463918546471e-01
-1.2562596281027e-01
-4.5265440701270e-01
-6.0173220572945e-01
 7.1557343384043e-01
 1.0248050422291e-01
-4.6835102101415e-01
 4.9614003606045e-01
-1.8532564196777e-01
 3.9233869314510e-01
-2.1669913870259e-01
 2.9567416087244e-01
-2.0882559792444e-01
 1.0299920638612e-01
-5.9631119486703e-01
-8.7278274885083e-01
 8.6174958699546e-01
-4.0268894908507e-01
 3.7971300914213e-01
-2.1445655383520e-01
 5.7406263453159e-01
-3.3988713936369e-01
 2.6859261008364e-01
-2.9822668260326e-01
 3.2797115717686e-01
-4.6756218688437e-01
-4.4045713257224e-01
 5.9300972315858e-01
-3.0962774115287e-01
 2.6173013338065e-01
-9.5367383101870e-01
 3.8116593128777e-01
-3.3297339427955e-01
 1.4524977112512e-01
-5.3409750854834e-01
-7.3339500705066e-01
 9.1547320939245e-01
-5.5788978037957e-01
 3.7184772777782e-01
-1.5660373733148e-01
 1.7511302924192e-01
-6.8798503849372e-01
 3.4304479331375e-01
-1.5567638964172e-01
 9.9089292768144e-01
-1.3739385594629e-01
 7.4647319575627e-01
-1.8865117801248e-01
-4.2094149346750e-01
 3.4169509359659e-01
 4.7573422395697e-01
 1.5031683324530e-01
 1.0377305264118e-01
 6.2612583483297e-01
-1.4241124701967e-01
 3.4188068044125e-01
 1.5817307744098e-01
-1.7347234759768e-01
-2.0599841277225e-01
 2.4123498337802e-01
 1.7979941550440e-01
 2.3616646409204e-01
 1.0859319658577e-01
 1.3407107383607e-01
 2.3412771987667e-01
 1.8402483782239e-01
 6.5857721800193e-01
-3.7005253052769e-01
-6.3967928176645e-01
 1.5178830414797e-01
-5.4210108624275e-01
 3.1875097050488e-01
 4.5844961457602e-01
 1.3748521331346e-01
 3.0290069031132e-01
-7.2022112945156e-01
 2.8141604370415e-01
-2.5961845922051e-01
 3.3551677770221e-01
 2.2768245622196e-01
 3.2526065174565e-01
-4.0657581468206e-01
 1.2129344574474e-01
 6.1302080754199e-01
 9.1578201214512e-01
 3.1808350444571e-01
 2.4165811850398e-01
 4.6088795573914e-01
 6.6549118177697e-01
 7.8219509180360e-01
 1.3010426069826e-01
 3.7947076036993e-01
-6.5052130349130e-01
 3.6452720225977e-01
 8.1370789498634e-01
 1.6164749871752e-01
 4.4815670659647e-01
-1.7943331715560e-01
 4.8700496474170e-01
-4.6074010526451e-01
 4.9360627466480e-01
 1.6263032587283e-01
-1.1384122811098e-01
 9.2157184661268e-01
 1.0828354230376e-01
 8.2345599826285e-01
 6.8492691069988e-01
 4.1526973618279e-01
 2.6280203852448e-01
 6.3459071815578e-01
 4.9468329369780e-01
 3.2419113907647e-01
-1.1926223897341e-01
 0.0000000000000e+00
-1.5178830414797e-01
 3.6983556473052e-01
 8.2940675692917e-01
 2.4764275107517e-01
 4.3615119818789e-01
-3.0294506351808e-01
 4.7408828314447e-01
-2.7064364998979e-01
 6.0871692469363e-01
 4.5536491244391e-01
-5.4210108624275e-01
 2.3852447794681e-01
 2.8082451183179e-01
-4.1525010979130e-01
 3.7952412249856e-01
 3.0339139374578e-01
 6.8363333213082e-01
 6.8207748074438e-01
 3.1773282277861e-01
-4.2499135504102e-01
-2.1684043449710e-01
 6.5052130349130e-01
 1.0842021724855e-01
 2.0733229306436e-01
 1.1032543810892e-01
 1.6427302494856e-01
 1.8668573418224e-01
-1.7347234759768e-01
 1.7347234759768e-01
 0.0000000000000e+00
 5.6810075059199e-01
-5.8833098489641e-01
 1.2314812319746e-01
-1.7203507699293e-01
 1.6940658945086e-01
-5.0821976835258e-01
 8.1526921173226e-01
 6.5342912053734e-01
-8.6391757907256e-01
 5.1582605231124e-01
-5.8465664658280e-01
-6.7233240188310e-01
 1.9852334701273e-01
 1.6887719385883e-01
 6.8060616682464e-01
-9.3592667483988e-01
 3.3440063516070e-01
 3.1124344992417e-01
 8.8303184751261e-01
-3.2610768469291e-01
 1.2705494208814e-01
 4.7612502038774e-01
 4.3747249290182e-01
-1.2921995023502e-01
 8.6946143156519e-01
-5.2177229550865e-01
 2.3716922523120e-01
-1.1180834903757e-01
 7.9980305827954e-01
 2.5242813735782e-01
 1.8750976833771e-01
 5.4155857306304e-01
 4.0657581468206e-01
 6.2341624917917e-01
 1.4907779871676e-01
 6.6009591642152e-01
 3.0946814201543e-01
 2.4185691405268e-01
-7.4621965336163e-01
 2.7105054312138e-01
 1.0842021724855e-01
 2.1684043449710e-01
-9.6425584338827e-01
 1.1403709765565e-01
 5.0975487820986e-01
 1.4056958429936e-01
-1.6805133673525e-01
 1.3281476612947e-01
-5.1499603193062e-01
 3.3569505421412e-01
 1.7786741925591e-01
 1.6018682980735e-01
-2.5538853970625e-01
-9.4867690092482e-01
 1.7381116077658e-01
 2.2022856628612e-01
 2.1919723293513e-01
-5.4369137391124e-01
 2.2016692592224e-01
-2.2239695866081e-01
 1.2468324983583e-01
-1.6263032587283e-01
-1.6263032587283e-01
 7.2679150482206e-01
-7.4888742476912e-01
 1.6879745586599e-01
-6.3748496967786e-01
-1.0028870095491e-01
 2.5478751053409e-01
-3.3068166260808e-01
-1.9689071657446e-01
-6.4418778207137e-01
 1.0084383983141e-01
 5.9966967343481e-01
 1.2468324983583e-01
-6.5052130349130e-01
-2.8189256484623e-01
 7.0812078109721e-01
-3.8219675304766e-01
 7.6576581712388e-01
-5.5857366988441e-01
-6.0173220572945e-01
 4.3368086899420e-01
-3.0899761915837e-01
-5.7232275258652e-01
-1.8856993233289e-01
 3.3475902559356e-01
 4.6336769405334e-01
-1.3010426069826e-01
 2.2768245622196e-01
-2.4936649967167e-01
 8.7389365642859e-01
 5.1250007748176e-01
 4.3265218935692e-01
-5.6280741662675e-01
-1.3010426069826e-01
-4.0657581468206e-01
-1.2468324983583e-01
-9.3197421613637e-01
 1.7989926635750e-01
 3.7621066514670e-01
 8.9525213530306e-01
 2.8189256484623e-01
-1.1926223897341e-01
-3.4694469519536e-01
 1.1894062163097e-01
 3.7101754488042e-01
-1.8989281372384e-01
-7.8875117352104e-01
-3.4694469519536e-01
-2.1684043449710e-01
-2.0599841277225e-01
-1.5552182122797e-01
 3.2094639951877e-01
-2.5300776885049e-01
 1.4477045652220e-01
-6.5052130349130e-01
-1.5178830414797e-01
 4.7704895589362e-01
 1.8957233440535e-01
 4.6168319228452e-01
-3.2924200977870e-01
-2.5197967901157e-01
 4.3368086899420e-01
 4.3368086899420e-01
-2.8189256484623e-01
-4.0207309007079e-01
 3.8337678957664e-01
 1.0594641308837e-01
 5.8641226741503e-01
 9.1072982488782e-01
 1.7347234759768e-01
 6.0715321659188e-01
 9.9238244312485e-01
 6.0914581611475e-01
-1.7347234759768e-01
-2.6020852139652e-01
-2.6020852139652e-01
