%%MatrixMarket matrix array real general
974 1
 4.8831449409210e-21
 2.0294909416213e-21
 4.8653572490287e-21
 2.8257019120404e-21
 5.6996847020742e-21
 2.1963564322304e-21
 5.2232286692436e-21
 2.0667603913005e-21
 3.9259977105237e-21
-3.8784844561386e-20
 1.3780167260643e-19
-3.3970388736720e-06
-1.3221475950809e-17
-1.5979596593069e-06
-6.2193533814502e-18
-2.9947997635556e-06
-1.1655937574992e-17
-1.4087472616353e-06
-5.4829275534154e-18
-2.6401892829858e-06
-1.0275772638671e-17
-1.2419392662723e-06
-4.8337009825371e-18
-2.3275677821032e-06
-3.3817344884606e-19
-1.2751565840781e-19
 1.6840778093607e-19
-2.6321248944714e-20
-5.0847155909411e-20
-4.4115102855548e-20
 6.6926797488041e-20
-9.4048858975508e-20
 2.0422794413657e-19
 6.3527471044072e-22
-2.4860417001914e-19
-2.3886329112571e-19
 4.3368086899421e-21
-1.1286714022164e-19
-6.5766043485251e-20
-1.6190071643586e-20
-2.6393288890388e-20
-1.0161730904983e-19
-3.0301345336861e-21
-2.3969423424876e-19
 0.0000000000000e+00
 0.0000000000000e+00
 0.0000000000000e+00
-1.8150527380356e-18
-8.5751972375047e-20
 0.0000000000000e+00
 0.0000000000000e+00
 0.0000000000000e+00
-1.4209173336904e-18
 4.9174101529308e-20
 0.0000000000000e+00
 0.0000000000000e+00
 0.0000000000000e+00
 7.5699811131681e-20
-6.8735552159330e-19
-9.0590312914761e-18
 0.0000000000000e+00
 0.0000000000000e+00
 0.0000000000000e+00
-2.1038157864187e-18
-1.0948827949134e-06
-4.2613485097549e-18
 3.6248850435668e-19
-2.0519634036387e-06
-7.9863627712404e-18
 0.0000000000000e+00
 0.0000000000000e+00
 0.0000000000000e+00
-1.2963681600126e-18
 3.6791276005237e-06
 8.2226950408377e-11
-1.7890146453986e-06
-3.9038207592182e-05
-1.6445391545713e-10
-6.2265894941425e-07
-4.1510596627616e-07
-2.0755298313808e-07
 1.4316268222859e-05
-7.0990124360095e-06
 0.0000000000000e+00
-6.2906787440795e-06
 7.8979405853141e-07
 3.6798836042605e-18
-4.4385993650031e-22
-7.5937055236137e-19
 1.2371871990844e-18
-2.1317322830766e-18
-3.1959193186138e-06
-1.2438706762900e-17
 1.8038941850965e-18
-1.5033534603106e-06
-5.8511404668082e-18
-2.3001936694235e-18
-2.8174945226286e-06
-1.0965855104332e-17
-1.1281578660994e-19
-1.3253432639227e-06
-5.1583142678552e-18
-1.5857370220005e-18
-2.4838785330622e-06
-9.6674019670886e-18
-5.8420962186327e-19
-1.1684110312622e-06
-4.5475247487512e-18
-1.2647109793673e-18
-2.1897655919862e-06
-8.5226970279149e-18
 8.3559312483915e-19
-1.0300609460200e-06
-4.0090580449996e-18
-3.4552139354052e-19
-1.9304781978220e-06
-7.5135351743782e-18
 8.7951828603536e-19
 3.4613071593869e-06
 7.7358755268418e-11
-1.6830971558292e-06
-3.6726975006042e-05
-1.5471752429263e-10
 1.3468682545406e-05
-6.6787198589827e-06
-3.2526065174565e-19
-5.9182430560967e-06
 7.4303479684861e-07
 1.9864587202702e-18
-4.2689919413278e-19
-1.3451547227037e-18
 6.5694337655592e-20
-1.1321094912149e-18
-8.6297888088130e-06
-3.3587647783657e-17
 0.0000000000000e+00
 0.0000000000000e+00
 0.0000000000000e+00
-6.7108099739258e-18
-4.0594337885558e-06
-1.5799556085526e-17
-9.7151474292919e-19
-7.6079463454100e-06
-2.9610576558447e-17
 0.0000000000000e+00
 0.0000000000000e+00
 0.0000000000000e+00
 2.2705967422619e-19
-3.5787613286171e-06
-1.3928750479341e-17
-5.4255546836430e-19
-6.7070989690593e-06
-2.6104425358919e-17
 0.0000000000000e+00
 0.0000000000000e+00
 0.0000000000000e+00
 1.6651722064213e-18
-3.1550046908110e-06
-1.2279464614768e-17
-2.5364322622124e-18
-5.9129197941840e-06
-2.3013433100153e-17
 0.0000000000000e+00
 0.0000000000000e+00
 0.0000000000000e+00
 4.3716888126862e-19
-2.7814245411599e-06
-1.0825468605894e-17
 7.0329830107758e-19
-5.2127783859224e-06
-2.0288441383620e-17
 0.0000000000000e+00
 0.0000000000000e+00
 0.0000000000000e+00
 6.3441843147486e-19
 9.3464029626713e-06
 2.0888816474160e-10
-4.5447871336831e-06
-9.9172102387801e-05
-4.1777636658519e-10
-1.5817938602375e-06
-1.0545292401583e-06
-1.6131083035681e-07
 3.6368842361841e-05
-1.8034229325046e-05
 4.3368086899420e-19
-1.5980750013266e-05
 2.0063814931304e-06
-7.1674694019143e-19
-1.7237957360507e-18
 1.4619249620380e-18
-6.6099683794193e-20
 7.3752052448612e-18
-5.3013730556909e-06
-2.0633257071421e-17
 1.2910109339510e-18
-2.4937542951265e-06
-9.7058390163790e-18
-2.9322213139945e-18
-4.6736441248145e-06
-1.8190098994093e-17
-5.1097116284701e-18
-2.1984719789325e-06
-8.5565828001742e-18
-2.0014458526843e-18
-4.1202437909154e-06
-1.6036232206602e-17
-5.8374700486498e-18
-1.9381536708481e-06
-7.5434085687668e-18
-3.0042156237362e-18
-3.6323708924761e-06
-1.4137402068461e-17
 4.5914444059947e-19
-1.7086593247663e-06
-6.6502030181668e-18
-2.2701257755494e-18
-3.2022664160906e-06
-1.2463410041187e-17
-9.5095242048729e-20
 5.7415969187256e-06
 1.2832226971682e-10
-2.7919121299625e-06
-6.0922500320980e-05
-2.5664456217874e-10
 2.2341775127426e-05
-1.1078623074337e-05
-1.0842021724855e-19
-9.8171484154480e-06
 1.2325419570242e-06
-4.8044442766166e-18
-2.1572314909350e-18
 1.6488982346597e-18
 1.2113970799283e-19
 3.9241094222992e-18
-1.1987477536029e-05
-4.6655970640146e-17
 0.0000000000000e+00
 0.0000000000000e+00
 0.0000000000000e+00
-6.2573676601505e-18
-5.6388832250001e-06
-2.1946866586243e-17
 2.1664230118940e-18
-1.0568055363971e-05
-4.1131495704827e-17
 0.0000000000000e+00
 0.0000000000000e+00
 0.0000000000000e+00
-1.7249800734875e-18
-4.9711901396470e-06
-1.9348165659110e-17
 1.1014238552575e-18
-9.3167051946175e-06
-3.6261166931618e-17
 0.0000000000000e+00
 0.0000000000000e+00
 0.0000000000000e+00
 6.4478680809289e-18
-4.3825577537354e-06
-1.7057173644119e-17
-3.5090058634920e-18
-8.2135258203232e-06
-3.1967527644854e-17
 0.0000000000000e+00
 0.0000000000000e+00
 0.0000000000000e+00
 3.5634945454294e-19
-3.8636245850261e-06
-1.5037455099435e-17
 1.7403381443165e-18
-7.2409725412664e-06
-2.8182292836507e-17
 0.0000000000000e+00
 0.0000000000000e+00
 0.0000000000000e+00
-1.9760079772833e-20
 1.2982912796576e-05
 2.9016262591701e-10
-6.3130784400381e-06
-1.3775810462018e-04
-5.8032530327786e-10
-2.1972401395109e-06
-1.4648267596739e-06
-1.2537128410434e-07
 5.0519275787915e-05
-2.5051009208104e-05
 8.6736173798840e-19
-2.2198559667786e-05
 2.7870268450921e-06
-7.0014424355739e-18
-4.3727509932738e-18
 1.3560739717216e-17
 5.9903490121857e-20
-5.0479104415730e-18
-6.6041223226012e-06
-2.5703634168334e-17
-2.3926910148002e-19
-3.1065647021100e-06
-1.2090933317517e-17
-4.2385769801190e-18
-5.8221364858388e-06
-2.2660099101733e-17
 5.5195316552044e-18
-2.7387202747587e-06
-1.0659261078628e-17
-1.5434028522352e-18
-5.1327446131965e-06
-1.9976945212779e-17
 1.9804609460179e-19
-2.4144318439425e-06
-9.3971113509948e-18
-9.3136538606384e-19
-4.5249827625726e-06
-1.7611500191197e-17
-5.3207136373132e-19
-2.1285419965485e-06
-8.2844111781487e-18
-2.8027278059693e-18
-3.9891852354586e-06
-1.5526144567468e-17
-2.9010420865160e-18
 7.1525259550670e-06
 1.5985593870373e-10
-3.4779912725540e-06
-7.5893478933070e-05
-3.1971190607530e-10
 2.7832000181006e-05
-1.3801062702119e-05
-8.6736173798840e-19
-1.2229595675239e-05
 1.5354244582321e-06
 1.4388965008813e-18
-3.3135237175523e-18
-4.9147006015289e-19
-2.2495259052430e-18
-2.8327370240718e-18
-1.3971840751198e-05
-5.4379229484891e-17
 0.0000000000000e+00
 0.0000000000000e+00
 0.0000000000000e+00
-4.5974163777069e-19
-6.5723233430478e-06
-2.5579870661627e-17
-1.8776085735234e-18
-1.2317452620993e-05
-4.7940253161617e-17
 0.0000000000000e+00
 0.0000000000000e+00
 0.0000000000000e+00
 5.3136911821944e-18
-5.7941027848702e-06
-2.2550990281684e-17
 1.4370141455020e-18
-1.0858958518489e-05
-4.2263707965121e-17
 0.0000000000000e+00
 0.0000000000000e+00
 0.0000000000000e+00
-3.9024035373280e-18
-5.1080303453402e-06
-1.9880755822473e-17
-2.3346257183505e-18
-9.5731628628708e-06
-3.7259315324764e-17
 0.0000000000000e+00
 0.0000000000000e+00
 0.0000000000000e+00
-7.1585877212017e-18
-4.5031948766664e-06
-1.7526700452296e-17
-1.1663186105392e-18
-8.4396166688364e-06
-3.2847486581881e-17
 0.0000000000000e+00
 0.0000000000000e+00
 0.0000000000000e+00
 6.4431921647818e-18
 1.5132056726303e-05
 3.3819508648161e-10
-7.3581223696936e-06
-1.6056207773113e-04
-6.7639023315123e-10
-2.5609632409418e-06
-1.7073088272945e-06
-9.7438955672909e-08
 5.8882052045813e-05
-2.9197861706968e-05
 0.0000000000000e+00
-2.5873228095928e-05
 3.2483810820004e-06
-4.0234361632909e-18
-8.5118156540078e-19
-1.8011530439705e-17
 1.3673222319646e-19
-1.4359576112407e-18
-7.3225101938602e-06
-2.8499642196625e-17
 2.0721133079349e-18
-3.4444927861552e-06
-1.3406169381176e-17
-3.7395603929936e-18
-6.4554609507610e-06
-2.5125035328081e-17
-2.8216215711619e-18
-3.0366347185032e-06
-1.1818761690732e-17
 1.3985435662033e-18
-5.6910779232523e-06
-2.2150011434849e-17
 3.2750960901120e-18
-2.6770706122666e-06
-1.0419316950719e-17
-4.9929224868587e-18
-5.0172045258133e-06
-1.9527256368023e-17
-9.0395536846550e-18
-2.3600820376154e-06
-9.1855786944646e-18
-2.3940129702879e-18
-4.4231236377731e-06
-1.7215058460918e-17
-1.5683489975895e-18
 7.9305684630628e-06
 1.7724486065797e-10
-3.8563226577801e-06
-8.4149073258839e-05
-3.5448975313762e-10
 3.0859529107068e-05
-1.5302324424934e-05
-2.1684043449710e-19
-1.3559915250552e-05
 1.7024459418088e-06
-3.9168173340954e-18
-3.3794049424862e-18
 2.3210182396606e-18
-4.3825209486423e-18
-3.8860231072548e-18
-1.4962885330481e-05
-5.8236433525953e-17
 0.0000000000000e+00
 0.0000000000000e+00
 0.0000000000000e+00
 1.3299111397533e-17
-7.0385085464444e-06
-2.7394291009625e-17
-4.8612769081503e-18
-1.3191148855297e-05
-5.1340730512550e-17
 0.0000000000000e+00
 0.0000000000000e+00
 0.0000000000000e+00
 1.5784291934659e-19
-6.2050875834381e-06
-2.4150567393540e-17
 8.8854919744432e-19
-1.1629201478457e-05
-4.5261539061618e-17
 0.0000000000000e+00
 0.0000000000000e+00
 0.0000000000000e+00
 1.4774267567210e-17
-5.4703509496692e-06
-2.1290929015881e-17
-2.7563851372092e-18
-1.0252202320219e-05
-3.9902177001902e-17
 0.0000000000000e+00
 0.0000000000000e+00
 0.0000000000000e+00
-1.3099636211505e-17
-4.8226135525193e-06
-1.8769896805967e-17
 1.5732918165411e-20
-9.0382519166768e-06
-3.5177410326343e-17
 0.0000000000000e+00
 0.0000000000000e+00
 0.0000000000000e+00
-1.3949875864173e-17
 1.6205397244496e-05
 3.6218379438046e-10
-7.8800455305748e-06
-1.7195099774586e-04
-7.2436765311420e-10
-2.7426163806217e-06
-1.8284109204144e-06
-7.5729865218683e-08
 6.3058648353801e-05
-3.1268911834621e-05
 8.6736173798840e-19
-2.7708456746866e-05
 3.4787938472199e-06
 1.2555584180111e-18
-3.6810236098680e-18
 7.8575793130023e-18
 1.5274140388711e-18
-1.4083878728832e-17
-7.6215561395631e-06
-2.9663546681187e-17
 4.4672307828817e-18
-3.5851633452165e-06
-1.3953667506096e-17
-5.6221049178665e-18
-6.7190972413034e-06
-2.6151123343200e-17
-8.7178910432785e-19
-3.1606486532205e-06
-1.2301431249841e-17
-3.4355203560940e-18
-5.9234973715796e-06
-2.3054601656167e-17
 6.0382811201667e-19
-2.7864002126036e-06
-1.0844834213053e-17
-8.3950012375876e-19
-5.2221034788343e-06
-2.0324735196042e-17
-3.3446392818086e-18
-2.4564660570554e-06
-9.5607109912847e-18
-3.2746739845524e-18
-4.6037607630485e-06
-1.7918108822267e-17
-4.7348927426728e-18
 8.2544470625037e-06
 1.8448341075607e-10
-4.0138120467508e-06
-8.7585659692523e-05
-3.6896685441993e-10
 3.2119809642213e-05
-1.5927260131125e-05
-2.1684043449710e-19
-1.4113692244025e-05
 1.7719725854348e-06
-2.5622691807059e-19
-3.9381749675937e-19
 9.5756693766316e-18
-7.8160919859060e-19
-5.3174696729784e-18
-1.5247187449070e-05
-5.9342954164505e-17
 0.0000000000000e+00
 0.0000000000000e+00
 0.0000000000000e+00
 6.3019782791653e-19
-7.1722436414656e-06
-2.7914795898841e-17
 4.4549339026103e-18
-1.3441787116791e-05
-5.2316229430855e-17
 0.0000000000000e+00
 0.0000000000000e+00
 0.0000000000000e+00
 1.3377818230665e-17
-6.3229872737076e-06
-2.4609439952105e-17
 1.2064498987777e-17
-1.1850161978040e-05
-4.6121530377570e-17
 0.0000000000000e+00
 0.0000000000000e+00
 0.0000000000000e+00
-1.2525789958119e-17
-5.5742902855705e-06
-2.1695467050642e-17
-5.1101913655918e-19
-1.0446999164240e-05
-4.0660337824990e-17
 0.0000000000000e+00
 0.0000000000000e+00
 0.0000000000000e+00
 1.4055421000313e-17
-4.9142455619771e-06
-1.9126533999247e-17
-1.9776653520763e-18
-9.2099831109948e-06
-3.5845798278355e-17
 0.0000000000000e+00
 0.0000000000000e+00
 0.0000000000000e+00
 1.5428122207086e-17
 1.6513307695418e-05
 3.6906546312923e-10
-8.0297702387164e-06
-1.7521815056250e-04
-7.3813099192928e-10
-2.7947274292738e-06
-1.8631516195158e-06
-5.8857486908724e-08
 6.4256793425857e-05
-3.1863036409149e-05
 0.0000000000000e+00
-2.8234930938301e-05
 3.5448926269052e-06
 1.5051816701647e-17
 2.1827031653182e-18
 8.6254895754315e-18
 9.9391737732393e-18
-2.5431440389356e-18
-1.0233791361672e-05
-3.9830520463748e-17
-1.2520414868654e-18
-4.8139530826265e-06
-1.8736189745592e-17
-7.0733942225187e-18
-9.0220209688336e-06
-3.5114238518617e-17
 3.6527143071355e-18
-4.2439389400684e-06
-1.6517661033465e-17
-3.4964716146104e-18
-7.9537347914398e-06
-3.0956405615243e-17
 1.6426562699809e-18
-3.7414194560455e-06
-1.4561825519095e-17
-1.0039976014343e-17
-7.0119430327404e-06
-2.7290896461132e-17
-4.4088087663945e-18
-3.2984026692974e-06
-1.2837578017193e-17
-3.1055793163804e-18
-6.1816676627916e-06
-2.4059415679029e-17
-1.0059658680798e-17
 6.8979457854984e-06
-4.2671549577425e-06
-2.7609817807460e-06
-9.9987640556770e-05
 1.7069060835774e-05
 3.4322006382637e-05
 6.1794481347188e-07
-4.4834436604760e-06
-5.6841666765247e-07
-1.2143064331838e-17
-1.7347234759768e-18
 6.9388939039072e-18
-4.3368086899420e-19
-3.4694469519536e-18
-2.6965643021781e-05
-1.0495187543297e-16
 0.0000000000000e+00
 0.0000000000000e+00
 0.0000000000000e+00
-1.5915648740820e-17
-1.2684579523077e-05
-4.9369132749785e-17
 6.7558738849481e-18
-2.3772675070528e-05
-9.2524655566170e-17
 0.0000000000000e+00
 0.0000000000000e+00
 0.0000000000000e+00
-3.5329036430268e-17
-1.1182614382068e-05
-4.3523395703703e-17
 5.6611785962807e-18
-2.0957782457747e-05
-8.1568927248654e-17
 0.0000000000000e+00
 0.0000000000000e+00
 0.0000000000000e+00
 4.5121280989008e-19
-9.8584950465497e-06
-3.8369845037492e-17
 1.6998666784010e-17
-1.8476197728449e-05
-7.1910452901305e-17
 0.0000000000000e+00
 0.0000000000000e+00
 0.0000000000000e+00
 6.5537192504607e-19
-8.6911630088030e-06
-3.3826519795236e-17
 1.4682671028198e-17
-1.6288454355093e-05
-6.3395626467744e-17
 0.0000000000000e+00
 0.0000000000000e+00
 0.0000000000000e+00
-1.8106470671270e-19
-1.2357068139964e-06
-5.8576220889361e-06
-3.6454631373194e-06
-4.7548432494372e-05
 2.3430608049978e-05
-7.5531595074279e-07
-5.0354396716187e-07
 7.8270005649863e-07
 1.5107632637723e-05
 7.9884038188193e-06
-1.7573285197170e-05
 2.3474568861654e-07
 3.0212638024718e-07
-1.6202479863814e-05
-6.3061008669390e-17
 1.7839992105989e-18
-7.6216111048271e-06
-2.9663760609241e-17
-3.2305708741382e-18
-1.4283964555494e-05
-5.5594033767571e-17
-3.6896610027801e-18
-6.7191456997305e-06
-2.6151311946261e-17
-8.4004755021796e-18
-1.2592618243428e-05
-4.9011214017470e-17
-2.2296863140650e-17
-5.9235400895213e-06
-2.3054767916919e-17
 1.1130068113785e-18
-1.1101542114655e-05
-4.3207857650196e-17
 5.1470677126801e-18
-5.2221411345357e-06
-2.0324881754256e-17
-1.5250685881104e-18
-9.7870224525283e-06
-3.8091669479856e-17
-1.0236200026277e-17
-6.8444392435003e-06
 1.5399194434997e-06
 1.0162399247054e-06
 6.9428521812254e-06
-6.1597430457350e-06
-6.2968674589500e-06
-1.3525802906026e-05
 4.6199867812550e-06
 3.7561055157329e-06
-1.6475524300397e-07
-3.8933385216138e-05
-1.5153103495761e-16
 0.0000000000000e+00
 0.0000000000000e+00
 0.0000000000000e+00
-5.5971768114137e-17
-1.8314179286502e-05
-7.1279867555226e-17
 7.0781327252625e-18
-3.4323331929869e-05
-1.3358843526329e-16
 0.0000000000000e+00
 0.0000000000000e+00
 0.0000000000000e+00
 2.1424270651832e-18
-1.6145620303173e-05
-6.2839707900828e-17
 8.7194289488999e-18
-3.0259149282827e-05
-1.1777039634003e-16
 0.0000000000000e+00
 0.0000000000000e+00
 0.0000000000000e+00
-2.9926520070771e-17
-1.4233837664790e-05
-5.5398936948085e-17
-7.7750699202226e-18
-2.6676201376330e-05
-1.0382535145229e-16
 0.0000000000000e+00
 0.0000000000000e+00
 0.0000000000000e+00
 2.8081486606065e-17
-1.2548426793482e-05
-4.8839218284003e-17
-5.1523838717444e-18
-2.3517505867376e-05
-9.1531521955303e-17
 0.0000000000000e+00
 0.0000000000000e+00
 0.0000000000000e+00
-2.6202907737665e-17
-1.1062583358326e-05
-4.3056227869372e-17
-6.6246376766537e-18
-2.0732827496153e-05
-8.0693389250610e-17
 0.0000000000000e+00
 0.0000000000000e+00
 0.0000000000000e+00
-1.9191659446886e-17
-5.1832068740390e-06
-2.0173347312655e-17
-8.2850636858610e-18
 0.0000000000000e+00
-2.3445812502531e-05
-9.1252487144579e-17
 9.3986558993750e-18
-1.1028858942147e-05
-4.2924970449587e-17
-2.0760682855855e-18
-2.0669623266056e-05
-8.0447394653759e-17
 4.1030618586902e-18
-9.7229455970443e-06
-3.7842278573454e-17
-3.5184806141848e-18
-1.8222159122119e-05
-7.0921719640052e-17
 5.6711813974040e-18
-8.5716638105700e-06
-3.3361421857198e-17
-3.3249816333999e-18
-1.6064496120156e-05
-6.2523967788722e-17
 5.0219281890099e-18
-7.5567038460284e-06
-2.9411137724089e-17
-6.4475273293192e-18
-1.4162319305980e-05
-5.5120583271186e-17
-2.3270166580552e-19
-6.6619240472680e-06
-2.5928601894939e-17
-1.2521192676395e-17
-1.2485376841073e-05
-4.8593824145026e-17
-1.1705659274773e-17
-3.1213442102689e-06
-1.2148456036259e-17
-4.1699344977762e-18
 5.5511151231258e-17
-5.6468274217652e-05
-2.1977785869296e-16
 0.0000000000000e+00
 0.0000000000000e+00
 0.0000000000000e+00
 6.1615425478758e-18
-2.6562552736686e-05
-1.0338302423386e-16
 9.2977650897902e-18
-4.9781936729096e-05
-1.9375423824249e-16
 0.0000000000000e+00
 0.0000000000000e+00
 0.0000000000000e+00
-2.5612991313864e-17
-2.3417314205592e-05
-9.1141570089572e-17
-9.5949327004642e-18
-4.3887320093278e-05
-1.7081204211582e-16
 0.0000000000000e+00
 0.0000000000000e+00
 0.0000000000000e+00
-2.8137357460133e-17
-2.0644499417732e-05
-8.0349611152078e-17
 6.3646898162583e-18
-3.8690677577646e-05
-1.5058640249248e-16
 0.0000000000000e+00
 0.0000000000000e+00
 0.0000000000000e+00
 1.1311495941648e-17
-1.8200010126032e-05
-7.0835514438996e-17
 1.4062568041054e-18
-3.4109363027692e-05
-1.3275565565741e-16
 0.0000000000000e+00
 0.0000000000000e+00
 0.0000000000000e+00
 1.2510949059491e-17
-1.6044969816153e-05
-6.2447970260174e-17
-5.5259944594432e-18
-3.0070516135719e-05
-1.1703622498941e-16
 0.0000000000000e+00
 0.0000000000000e+00
 0.0000000000000e+00
 2.4012140845601e-17
-7.5176290339305e-06
-2.9259056247354e-17
-1.3966945503413e-17
 2.2204460492503e-16
-3.4071170255086e-05
-1.3260700713048e-16
 1.1596852760734e-17
-1.6027003998972e-05
-6.2378046238511e-17
-1.9516285549255e-17
-3.0036845740803e-05
-1.1690517782357e-16
-1.8308508446333e-17
-1.4129266570824e-05
-5.4991940073620e-17
-1.2293749300538e-17
-2.6480220542496e-05
-1.0306258247092e-16
 1.0013307125181e-17
-1.2456237847494e-05
-4.8480413460852e-17
-7.9073083195014e-18
-2.3344730847478e-05
-9.0859071372477e-17
 9.4056439359413e-18
-1.0981310341772e-05
-4.2739908488351e-17
-1.3316299635633e-17
-2.0580510580678e-05
-8.0100562818608e-17
 5.2495264168018e-18
-9.6810271947883e-06
-3.7679129675860e-17
 3.7975776689885e-19
-1.8143598137416e-05
-7.0615955647186e-17
-5.5600971471273e-18
-4.5358995343545e-06
-1.7653988911799e-17
 1.6884373682711e-18
 1.1102230246252e-16
-8.2221353792555e-05
-3.2001036556764e-16
 0.0000000000000e+00
 0.0000000000000e+00
 0.0000000000000e+00
 4.6434933426113e-18
-3.8676745065353e-05
-1.5053217633167e-16
 1.2313809243380e-17
-7.2485626468856e-05
-2.8211833975906e-16
 0.0000000000000e+00
 0.0000000000000e+00
 0.0000000000000e+00
-9.0490028639384e-19
-3.4097080225051e-05
-1.3270785026402e-16
 2.0230545634365e-17
-6.3902694431355e-05
-2.4871306129706e-16
 0.0000000000000e+00
 0.0000000000000e+00
 0.0000000000000e+00
-3.3270371639252e-17
-3.0059687745246e-05
-1.1699408025408e-16
 1.4539896317726e-17
-5.6336056549624e-05
-2.1926325971924e-16
 0.0000000000000e+00
 0.0000000000000e+00
 0.0000000000000e+00
-3.5678665433878e-17
-2.6500357808577e-05
-1.0314095789996e-16
 3.8995876313841e-17
-4.9665374832048e-05
-1.9330057245417e-16
 0.0000000000000e+00
 0.0000000000000e+00
 0.0000000000000e+00
-4.9278725020033e-18
-2.3362483768494e-05
-9.0928166789695e-17
-1.1308814010497e-17
-4.3784560094575e-05
-1.7041209413110e-16
 0.0000000000000e+00
 0.0000000000000e+00
 0.0000000000000e+00
-1.2072737490956e-17
-1.0946140023645e-05
-4.2603023532779e-17
-1.3739186129843e-17
 0.0000000000000e+00
 0.0000000000000e+00
