%%MatrixMarket matrix array real general
236 1
-1.9619363051719e-01
-2.4773711872144e-01
-4.2555917778652e-01
-7.6869389403966e-01
-3.6572997133778e-01
-2.6435461795425e-01
-5.8013781603393e-01
-9.5174742339927e-01
-1.5585406229479e-01
 4.6756218688437e-01
-4.7147917598024e-01
-5.8737252985835e-01
 1.4441636232878e-01
-7.0858137331018e-01
-6.9364857015668e-01
-6.4575716259921e-01
-1.1177489620927e-01
-6.4964513658043e-01
-2.3039296165317e-01
-9.2157184661268e-01
-2.4936649967167e-01
-1.7065098974367e-01
-1.0083467371204e-01
 1.1055812926750e-01
-3.7697543856560e-01
-2.0443738329625e-01
-1.2839728170743e-01
-1.1369315005993e-01
-2.1609347234184e-01
 4.6620693416877e-01
 1.0299920638612e-01
-9.2157184661268e-01
-3.3517720083182e-01
 8.8475524001213e-01
 6.7974450608381e-01
-1.1326337447484e-01
-2.3360623522398e-01
 3.9995050689000e-01
 2.4746018493258e-01
 5.3715830558241e-01
-6.2341624917917e-01
 1.1926223897341e-01
-1.8431436932254e-01
-1.2202796042522e-01
 4.5827586219112e-01
-2.9184689829746e-01
 2.3545306449623e-01
-4.9060148304969e-01
-1.0638733817514e-01
 1.5043305143236e-01
-1.5361797952178e-01
-1.5411197978213e-01
-1.7126807297918e-01
-3.0319102228909e-01
-7.8644271738962e-01
-1.2970729791215e-01
-1.4452281407432e-01
-3.1454188114298e-01
-1.8566962203814e-01
-4.1335207826010e-01
-7.3861273000575e-01
-1.8251468182216e-01
-2.3361605706290e-01
-1.6109134151757e-01
-2.0918518074395e-01
-1.2504580652952e-01
-1.8025156371030e-01
-1.1796824994900e-01
-1.7630150417158e-01
 2.7105054312138e-01
 6.0715321659188e-01
 1.3010426069826e-01
-5.4001308195252e-01
-3.3993086019224e-01
-2.5386541230398e-01
-6.0128419804625e-01
-3.5439999756761e-01
-2.4777842244545e-01
-1.9415690231157e-01
-4.3673408147606e-01
-5.0415401020576e-01
-2.3852447794681e-01
 3.0357660829594e-01
-6.4085518882870e-01
 1.8816858153037e-01
-4.5212588104071e-01
 2.8730372760811e-01
-3.5499565495307e-01
 1.3578033802170e-01
-1.4038191469896e-01
 2.0033272146743e-01
-2.3852447794681e-01
-4.3368086899420e-01
 5.4210108624275e-01
-1.0872845994296e-01
 4.1779734643229e-01
-6.1499432684386e-01
 2.1179555701178e-01
-1.4094628242312e-01
-2.2822455730820e-01
-5.0415401020576e-01
 3.3786402476998e-01
-2.5697304118259e-01
 6.2778877394853e-01
-5.8295986260006e-01
 6.7321299398617e-01
-1.3981258375008e-01
-3.3701751858012e-01
-3.0626514345881e-01
-2.0735366548785e-01
-1.0503208545953e-01
-8.3686855188725e-01
-1.4891464597037e-01
-5.1839204780816e-01
-1.7860615924954e-01
-4.5164927073291e-01
-1.6579535377382e-01
-3.0397295899961e-01
-9.2528165902691e-01
-3.2599820241338e-01
-2.3852447794681e-01
 1.8431436932254e-01
-3.3610267347051e-01
-4.0174123354903e-01
-7.1439102186540e-01
-2.1683095114248e-01
-1.1652435096724e-01
-2.1682092595609e-01
-4.7372050382158e-01
 1.9098822143236e-01
-4.2211112034616e-01
-1.1926223897341e-01
-1.5178830414797e-01
-1.8973538018496e-01
-4.0671220667721e-01
 2.1437422971220e-01
-2.0701300141455e-01
 2.1277658235832e-01
-3.3225238157592e-01
 7.1163722676679e-01
-1.1168850680065e-01
 1.9708546105587e-01
-6.5052130349130e-01
 7.0473141211558e-01
-1.0842021724855e-01
-7.7205675910030e-01
 2.7378987917094e-01
-1.2546796332278e-01
 2.3528696618438e-01
 1.0299920638612e-01
 1.0842021724855e-01
-4.1199682554449e-01
 5.4191589712594e-01
-1.8468155162431e-01
 2.3990369911885e-01
-2.6536051402022e-01
 1.2810669634694e-01
-2.3713016093379e-01
 2.7306808849879e-01
 6.0947625921198e-01
 2.1751806085490e-01
 9.7747602113146e-01
 1.4111568901257e-01
 8.9757428090082e-01
-3.6243419537110e-01
 1.0900347817798e-01
-5.3460009679781e-01
 4.5580321632068e-01
-7.9405301894149e-01
 4.7363314314719e-01
-1.6017164100976e-01
-3.9031278209478e-01
 3.4694469519536e-01
-1.0842021724855e-01
 4.0427089498217e-01
-1.0433370255858e-01
 2.4487263041207e-01
-1.9713968840233e-01
 3.0793514495932e-01
-5.7909243396325e-01
 1.9380870437972e-01
-3.2961544005492e-01
 1.7347234759768e-01
 4.0657581468206e-01
 5.4752209710518e-01
 4.9720451847121e-01
 2.7205259617543e-01
 2.0495238861375e-01
 1.8034635090487e-01
 6.9717157348527e-01
 1.8161040346836e-01
 3.8704685633107e-01
 2.6108242834358e-01
 5.8546917314217e-01
 2.0599841277225e-01
-2.0599841277225e-01
 5.7610769458852e-01
 3.6566491389882e-01
 9.0098846388063e-01
 1.1306227271934e-01
 3.0357660829594e-01
 2.6020852139652e-01
 1.0842021724855e-01
-2.0489866135766e-01
-2.6128507859032e-01
 8.8437652653877e-01
 2.8287883206489e-01
-4.6078592330634e-01
 3.2526065174565e-01
-1.6263032587283e-01
 1.2302182428279e-01
-4.3641174440629e-01
 8.8905462259822e-01
-3.3438922712845e-01
 7.5894152073985e-01
-1.8973538018496e-01
-4.3368086899420e-01
 3.7951470707582e-01
-4.2522329121034e-01
 2.3348689580661e-01
-7.6002933840484e-01
 5.4210108624275e-01
 1.9515639104739e-01
 3.6862873864507e-01
-4.8152828710127e-01
-7.5815505222471e-01
 2.8953016408605e-01
 8.7980573454865e-01
 5.2041704279304e-01
-8.6736173798840e-01
 1.9081958235745e-01
 4.6290626875393e-01
 2.5749567376148e-01
-6.9388939039072e-01
 3.4694469519536e-01
-1.0408340855861e-01
